data_tf-eb2_autored
_audit_creation_date               2024-07-17
_audit_creation_method
;
Olex2 1.5
(compiled 2024.02.16 svn.r378c4104 for OlexSys, GUI svn.r6928)
;
_shelx_SHELXL_version_number       '2019/2'
_audit_contact_author_address      ?
_audit_contact_author_email        ?
_audit_contact_author_name         ''
_audit_contact_author_phone        ?
_publ_contact_author_id_orcid      ?
_publ_section_references
;
Dolomanov, O.V., Bourhis, L.J., Gildea, R.J, Howard, J.A.K. & Puschmann, H.
 (2009), J. Appl. Cryst. 42, 339-341.

Sheldrick, G.M. (2015). Acta Cryst. A71, 3-8.

Sheldrick, G.M. (2015). Acta Cryst. C71, 3-8.
;
_chemical_name_common              ?
_chemical_name_systematic          ?
_chemical_formula_moiety           'C81 H72 Fe2 N12, 4(C2 H3 N), 4(B F4)'
_chemical_formula_sum              'C89 H84 B4 F16 Fe2 N16'
_chemical_formula_weight           1836.66
_chemical_absolute_configuration   ad
_chemical_melting_point            ?
_chemical_oxdiff_formula           C89H84B4F16Fe2N16
_chemical_oxdiff_usercomment       'Standard reaction mixture, CSD: KOMWUH'
loop_
  _atom_type_symbol
  _atom_type_description
  _atom_type_scat_dispersion_real
  _atom_type_scat_dispersion_imag
  _atom_type_scat_source
 'C' 'C' 0.0181 0.0091 'International Tables Vol C Tables 4.2.6.8 and 6.1.1.4'
 'H' 'H' 0.0000 0.0000 'International Tables Vol C Tables 4.2.6.8 and 6.1.1.4'
 'B' 'B' 0.0090 0.0039 'International Tables Vol C Tables 4.2.6.8 and 6.1.1.4'
 'N' 'N' 0.0311 0.0180 'International Tables Vol C Tables 4.2.6.8 and 6.1.1.4'
 'F' 'F' 0.0727 0.0534 'International Tables Vol C Tables 4.2.6.8 and 6.1.1.4'
 'Fe' 'Fe' -1.1336 3.1974
 'International Tables Vol C Tables 4.2.6.8 and 6.1.1.4'

_shelx_space_group_comment
;
The symmetry employed for this shelxl refinement is uniquely defined
by the following loop, which should always be used as a source of
symmetry information in preference to the above space-group names.
They are only intended as comments.
;
_space_group_crystal_system        'monoclinic'
_space_group_IT_number             4
_space_group_name_H-M_alt          'P 1 21 1'
_space_group_name_Hall             'P 2yb'
loop_
  _space_group_symop_operation_xyz
 'x, y, z'
 '-x, y+1/2, -z'

_cell_length_a                     12.01140(10)
_cell_length_b                     18.01150(10)
_cell_length_c                     20.1839(2)
_cell_angle_alpha                  90
_cell_angle_beta                   94.7030(10)
_cell_angle_gamma                  90
_cell_volume                       4351.95(6)
_cell_formula_units_Z              2
_cell_measurement_reflns_used      43553
_cell_measurement_temperature      100.00(10)
_cell_measurement_theta_max        80.0860
_cell_measurement_theta_min        3.2750
_shelx_estimated_absorpt_T_max     0.866
_shelx_estimated_absorpt_T_min     0.586
_exptl_absorpt_coefficient_mu      3.445
_exptl_absorpt_correction_T_max    1.000
_exptl_absorpt_correction_T_min    0.572
_exptl_absorpt_correction_type     gaussian
_exptl_absorpt_process_details
;
CrysAlisPro 1.171.44.60a (Rigaku Oxford Diffraction, 2024)
Numerical absorption correction based on gaussian integration over
a multifaceted crystal model
Empirical absorption correction using spherical harmonics,
implemented in SCALE3 ABSPACK scaling algorithm.
;
_exptl_absorpt_special_details     ?
_exptl_crystal_colour              'dark violet'
_exptl_crystal_colour_modifier     dark
_exptl_crystal_colour_primary      violet
_exptl_crystal_density_diffrn      1.402
_exptl_crystal_density_meas        ?
_exptl_crystal_density_method      ?
_exptl_crystal_description         block
_exptl_crystal_F_000               1892
loop_
  _exptl_crystal_face_index_h
  _exptl_crystal_face_index_k
  _exptl_crystal_face_index_l
  _exptl_crystal_face_perp_dist
 0 -1 0 0.0336
 0 1 0 0.0426
 -1 0 -1 0.0745
 1 0 -1 0.0240
 -1 0 1 0.0193
 1 0 2 0.0869
 0 1 -1 0.0528
 0 0 -1 0.0751
 0 0 1 0.0821
 0 1 1 0.0693
 1 1 -2 0.0353
 1 -1 1 0.0721
 0 -2 1 0.0381
 1 -2 -1 0.0348
 6 0 -9 0.0274

_exptl_crystal_size_max            0.174
_exptl_crystal_size_mid            0.076
_exptl_crystal_size_min            0.043
loop_
  _exptl_oxdiff_crystal_face_indexfrac_h
  _exptl_oxdiff_crystal_face_indexfrac_k
  _exptl_oxdiff_crystal_face_indexfrac_l
  _exptl_oxdiff_crystal_face_x
  _exptl_oxdiff_crystal_face_y
  _exptl_oxdiff_crystal_face_z
 -0.0000 -1.0000 0.0000 -0.0328 0.0179 0.0769
 0.0000 1.0000 -0.0000 0.0328 -0.0179 -0.0769
 -1.0000 -0.0000 -1.0000 0.0448 0.1477 -0.0153
 1.0000 -0.0000 -1.0000 -0.1311 -0.0375 -0.0471
 -1.0000 0.0000 1.0000 0.1311 0.0375 0.0471
 1.0000 0.0000 2.0000 -0.0017 -0.2028 0.0465
 0.0000 1.0000 -1.0000 -0.0103 0.0372 -0.1081
 0.0000 -0.0000 -1.0000 -0.0431 0.0551 -0.0312
 -0.0000 0.0000 1.0000 0.0431 -0.0551 0.0312
 0.0000 1.0000 1.0000 0.0760 -0.0730 -0.0457
 1.0000 1.0000 -2.0000 -0.1413 -0.0003 -0.1553
 1.0000 -1.0000 1.0000 -0.0777 -0.1298 0.0922
 -0.0000 -2.0000 1.0000 -0.0226 -0.0193 0.1850
 1.0000 -2.0000 -1.0000 -0.1967 -0.0018 0.1067
 6.0922 0.1716 -8.9878 -0.9177 -0.0721 -0.3908

_exptl_transmission_factor_max     ?
_exptl_transmission_factor_min     ?
_diffrn_reflns_av_R_equivalents    0.0398
_diffrn_reflns_av_unetI/netI       0.0304
_diffrn_reflns_Laue_measured_fraction_full  1.000
_diffrn_reflns_Laue_measured_fraction_max  0.994
_diffrn_reflns_limit_h_max         15
_diffrn_reflns_limit_h_min         -15
_diffrn_reflns_limit_k_max         19
_diffrn_reflns_limit_k_min         -23
_diffrn_reflns_limit_l_max         25
_diffrn_reflns_limit_l_min         -25
_diffrn_reflns_number              89217
_diffrn_reflns_point_group_measured_fraction_full  0.877
_diffrn_reflns_point_group_measured_fraction_max  0.853
_diffrn_reflns_theta_full          67.684
_diffrn_reflns_theta_max           80.900
_diffrn_reflns_theta_min           3.294
_diffrn_ambient_environment        N~2~
_diffrn_ambient_temperature        100.00(10)
_diffrn_detector                   'Hybrid Pixel Array Detector'
_diffrn_detector_area_resol_mean   10.0000
_diffrn_detector_type              'HyPix-Arc 100'
_diffrn_measured_fraction_theta_full  1.000
_diffrn_measured_fraction_theta_max  0.994
_diffrn_measurement_details
;
List of Runs (angles in degrees, time in seconds):

  # Type    Start    End  Width  t~exp~   \w     \q     \k     \f   Frames
--------------------------------------------------------------------------
  1  \w    -24.00  45.00   0.50    0.59    --   50.80 -38.00-180.00  138
  2  \w    -24.00  45.00   0.50    0.59    --   50.80 -38.00  60.00  138
  3  \w    -25.00  46.00   0.50    0.59    --   50.80 -38.00 -60.00  142
  4  \w   -151.00 -65.00   0.50    2.37    --  -87.07 -77.00  90.00  172
  5  \w    -45.00 -15.00   0.50    2.37    --  -87.07  45.00  30.00   60
  6  \w    -47.00 -11.00   0.50    2.37    --  -87.07  45.00-180.00   72
  7  \w    -45.00 -19.00   0.50    2.37    --  -87.07  45.00 150.00   52
  8  \w    -47.00 -11.00   0.50    2.37    --  -87.07  45.00  60.00   72
  9  \w   -121.00 -78.00   0.50    2.37    --  -96.00 139.00  59.72   86
 10  \w   -124.00 -76.00   0.50    2.37    --  -96.00 143.00 -28.73   96
 11  \w   -123.00 -96.00   0.50    2.37    --  -96.00 140.00 153.17   54
 12  \w    -50.00 -25.00   0.50    2.37    --  -96.00 139.00  59.72   50
 13  \w    -76.00 -26.00   0.50    2.37    --  -96.00 140.00 153.17  100
 14  \w   -123.00 -82.00   0.50    2.37    --  -96.00 140.00 -94.48   82
 15  \w    -71.00 -29.00   0.50    2.37    --  -96.00 140.00 -94.48   84
 16  \w   -120.00 -25.00   0.50    2.37    --  -96.00 138.00-141.53  190
 17  \w     32.00  57.00   0.50    2.37    --  104.38 -61.00   0.00   50
 18  \w     33.00  61.00   0.50    2.37    --  104.38 -61.00  60.00   56
 19  \w     45.00  73.00   0.50    2.37    --  104.38 -61.00-120.00   56
 20  \w     33.00  60.00   0.50    2.37    --  104.38 -61.00-180.00   54
 21  \w     32.00  72.00   0.50    2.37    --  104.38 -61.00 150.00   80
 22  \w     92.00 142.00   0.50    2.37    --  104.38  45.00 -60.00  100
 23  \w     46.00  71.00   0.50    2.37    --  104.38 -61.00  30.00   50
 24  \w    116.00 149.00   0.50    2.37    --  104.38  45.00 150.00   66
 25  \w     73.00 104.00   0.50    2.37    --  104.38 -95.00  60.00   62
 26  \w     40.00  77.00   0.50    2.37    --  104.38 -95.00   0.00   74
 27  \w     32.00  57.00   0.50    2.37    --  104.38 -61.00-150.00   50
 28  \w     39.00  67.00   0.50    2.37    --  104.38 -95.00  30.00   56
 29  \w     79.00 104.00   0.50    2.37    --  104.38 -95.00 -90.00   50
 30  \w    100.00 145.00   0.50    2.37    --  104.38 125.00 -90.00   90
 31  \w     99.00 145.00   0.50    2.37    --  104.38  45.00   0.00   92
 32  \w     44.00  71.00   0.50    2.37    --  104.38 -61.00 120.00   54
 33  \w     95.00 136.00   0.50    2.37    --  104.38  45.00  60.00   82
 34  \w     63.00  89.00   0.50    2.37    --  107.75  10.00  -3.95   52
 35  \w    121.00 146.00   0.50    2.37    --  107.75  16.00 177.18   50
 36  \w     43.00  71.00   0.50    2.37    --  107.75 -80.00  91.84   56
 37  \w     98.00 123.00   0.50    2.37    --  107.75 -87.00 -59.55   50
 38  \w     62.00 115.00   0.50    2.37    --  107.75  16.00 177.18  106
 39  \w     74.00 105.00   0.50    2.37    --  107.75-103.00  -9.23   62
 40  \w     43.00  76.00   0.50    2.37    --  107.75 -87.00 -59.55   66
 41  \w     44.00  77.00   0.50    2.37    --  107.75 -87.00 -50.81   66
 42  \w    104.00 130.00   0.50    2.37    --  107.75 -81.00 -50.27   52
 43  \w     42.00  81.00   0.50    2.37    --  107.75 -78.00-124.74   78
 44  \w     42.00 110.00   0.50    2.37    --  107.75 -88.00 136.13  136
 45  \w    107.00 133.00   0.50    2.37    --  107.75 -82.00  76.97   52
 46  \w     46.00  71.00   0.50    2.37    --  107.75 -81.00 -50.27   50
 47  \w     41.00  69.00   0.50    2.37    --  107.75-103.00  -9.23   56
 48  \w     59.00  85.00   0.50    2.37    --  107.75 -87.00-102.24   52
 49  \w     87.00 112.00   0.50    2.37    --  107.75 -87.00-102.24   50
 50  \w     91.00 117.00   0.50    2.37    --  107.75  17.00  33.56   52
 51  \w     44.00  70.00   0.50    2.37    --  107.75 -82.00  76.97   52
 52  \w     45.00  99.00   0.50    2.37    --  107.75 -80.00-151.86  108
 53  \w     59.00  85.00   0.50    2.37    --  107.75 -88.00 -30.24   52
 54  \w     73.00 129.00   0.50    2.37    --  107.75 -87.00 177.06  112
 55  \w     87.00 112.00   0.50    2.37    --  107.75 -84.00-155.05   50
 56  \w     42.00  82.00   0.50    2.37    --  107.75 -80.00 107.68   80
 57  \w     44.00  71.00   0.50    2.37    --  107.75 -84.00-155.05   54
 58  \w     42.00  67.00   0.50    2.37    --  107.75 -87.00 177.06   50
 59  \w     71.00  97.00   0.50    2.37    --  107.75 -80.00 -32.66   52
 60  \w     99.00 176.00   0.50    2.37    --  107.75  16.00-120.72  154
 61  \w     75.00 102.00   0.50    2.37    --  107.75  18.00 -45.49   54
 62  \w     46.00  88.00   0.50    2.37    --  107.75 -77.00  34.14   84
 63  \w    140.00 174.00   0.50    2.37    --  107.75  10.00 136.82   68
 64  \w     94.00 130.00   0.50    2.37    --  107.75  10.00 136.82   72
 65  \w     42.00  68.00   0.50    2.37    --  107.75  10.00 136.82   52
 66  \w     51.00 121.00   0.50    2.37    --  107.75 -88.00  85.39  140
 67  \w    109.00 173.00   0.50    2.37    --  107.75  18.00-159.69  128
 68  \w     99.00 126.00   0.50    2.37    --  107.75  10.00  -3.95   54
 69  \w     71.00  96.00   0.50    2.37    --  107.75  13.00 115.93   50
 70  \w     47.00  89.00   0.50    2.37    --  107.75 -80.00  -1.80   84
;
_diffrn_measurement_device         'four-circle diffractometer'
_diffrn_measurement_device_type    'XtaLAB Synergy R, DW system, HyPix-Arc 100'
_diffrn_measurement_method         '\w scans'
_diffrn_orient_matrix_type        
 'CrysAlisPro convention (1999,Acta A55,543-557)'
_diffrn_orient_matrix_UB_11        -0.0879400000
_diffrn_orient_matrix_UB_12        0.0328416000
_diffrn_orient_matrix_UB_13        0.0431202000
_diffrn_orient_matrix_UB_21        -0.0925922000
_diffrn_orient_matrix_UB_22        -0.0178749000
_diffrn_orient_matrix_UB_23        -0.0550792000
_diffrn_orient_matrix_UB_31        -0.0159249000
_diffrn_orient_matrix_UB_32        -0.0769140000
_diffrn_orient_matrix_UB_33        0.0312132000
_diffrn_radiation_monochromator    mirror
_diffrn_radiation_probe            x-ray
_diffrn_radiation_type             'Cu K\a'
_diffrn_radiation_wavelength       1.54184
_diffrn_source                     'Rotating-anode X-ray tube'
_diffrn_source_type                'Rigaku (Cu) X-ray Source'
_reflns_Friedel_coverage           0.663
_reflns_Friedel_fraction_full      0.746
_reflns_Friedel_fraction_max       0.703
_reflns_number_gt                  15271
_reflns_number_total               16346
_reflns_special_details
;
 Reflections were merged by SHELXL according to the crystal
 class for the calculation of statistics and refinement.
 
 _reflns_Friedel_fraction is defined as the number of unique
 Friedel pairs measured divided by the number that would be
 possible theoretically, ignoring centric projections and
 systematic absences.
;
_reflns_threshold_expression       'I > 2\s(I)'
_computing_cell_refinement         'CrysAlisPro 1.171.44.60a (Rigaku OD, 2024)'
_computing_data_collection        
 'CrysAlisPro system (CCD 44.60a 64-bit (release 05-07-2024))'
_computing_data_reduction          'CrysAlisPro 1.171.44.60a (Rigaku OD, 2024)'
_computing_molecular_graphics      'Olex2 1.5 (Dolomanov et al., 2009)'
_computing_publication_material    'Olex2 1.5 (Dolomanov et al., 2009)'
_computing_structure_refinement    'SHELXL 2019/2 (Sheldrick, 2015)'
_computing_structure_solution      'SHELXT 2018/2 (Sheldrick, 2018)'
_refine_diff_density_max           0.610
_refine_diff_density_min           -0.630
_refine_diff_density_rms           0.064
_refine_ls_abs_structure_details
;
 Flack x determined using 5436 quotients [(I+)-(I-)]/[(I+)+(I-)]
 (Parsons, Flack and Wagner, Acta Cryst. B69 (2013) 249-259).
;
_refine_ls_abs_structure_Flack     -0.0055(16)
_refine_ls_extinction_coef         .
_refine_ls_extinction_method       none
_refine_ls_goodness_of_fit_ref     1.057
_refine_ls_hydrogen_treatment      constr
_refine_ls_matrix_type             full
_refine_ls_number_parameters       1154
_refine_ls_number_reflns           16346
_refine_ls_number_restraints       1
_refine_ls_R_factor_all            0.0529
_refine_ls_R_factor_gt             0.0495
_refine_ls_restrained_S_all        1.057
_refine_ls_shift/su_max            0.001
_refine_ls_shift/su_mean           0.000
_refine_ls_structure_factor_coef   Fsqd
_refine_ls_weighting_details      
 'w=1/[\s^2^(Fo^2^)+(0.0904P)^2^+1.8502P] where P=(Fo^2^+2Fc^2^)/3'
_refine_ls_weighting_scheme        calc
_refine_ls_wR_factor_gt            0.1375
_refine_ls_wR_factor_ref           0.1404
_refine_special_details            ?
_olex2_refinement_description
;
1. Fixed Uiso
 At 1.2 times of:
  All C(H) groups, All C(H,H) groups
 At 1.5 times of:
  All C(H,H,H) groups
2.a Secondary CH2 refined with riding coordinates:
 C14(H14A,H14B), C30(H30A,H30B), C61(H61A,H61B)
2.b Aromatic/amide H refined with riding coordinates:
 C1(H1), C5(H5), C6(H6), C8(H8), C11(H11), C12(H12), C16(H16), C17(H17),
 C19(H19), C20(H20), C25(H25), C26(H26), C28(H28), C29(H29), C32(H32), C33(H33),
  C35(H35), C36(H36), C38(H38), C40(H40), C41(H41), C43(H43), C46(H46),
 C48(H48), C49(H49), C51(H51), C56(H56), C57(H57), C59(H59), C60(H60), C63(H63),
  C64(H64), C66(H66), C67(H67), C69(H69), C71(H71), C72(H72), C74(H74),
 C77(H77), C79(H79), C80(H80), C82(H82), C87(H87), C88(H88), C90(H90), C92(H92),
  C93(H93), C94(H94)
2.c Idealised Me refined as rotating group:
 C45(H45A,H45B,H45C), C53(H53A,H53B,H53C), C76(H76A,H76B,H76C), C84(H84A,H84B,
 H84C), C91(H91A,H91B,H91C), C95(H95A,H95B,H95C), C3(H3A,H3B,H3C), C3(H3A,H3B,
 H3C), C3(H3A,H3B,H3C), C3(H3A,H3B,H3C)
;
_atom_sites_solution_hydrogens     geom
_atom_sites_solution_primary       dual
_atom_sites_solution_secondary     ?
loop_
  _atom_site_label
  _atom_site_type_symbol
  _atom_site_fract_x
  _atom_site_fract_y
  _atom_site_fract_z
  _atom_site_U_iso_or_equiv
  _atom_site_adp_type
  _atom_site_occupancy
  _atom_site_site_symmetry_order
  _atom_site_calc_flag
  _atom_site_refinement_flags_posn
  _atom_site_refinement_flags_adp
  _atom_site_refinement_flags_occupancy
  _atom_site_disorder_assembly
  _atom_site_disorder_group
 Fe1 Fe 0.47019(5) 0.55286(4) 0.49775(3) 0.02968(14) Uani 1 1 d . . . . .
 Fe22 Fe 0.00689(5) 0.57471(3) -0.01389(3) 0.02816(14) Uani 1 1 d . . . . .
 N2 N 0.4716(3) 0.6327(2) 0.56445(17) 0.0351(7) Uani 1 1 d . . . . .
 N9 N 0.3068(3) 0.5711(2) 0.49542(16) 0.0347(7) Uani 1 1 d . . . . .
 N21 N 0.0192(3) 0.4819(2) 0.03739(17) 0.0319(7) Uani 1 1 d . . . . .
 N23 N -0.0297(3) 0.63696(19) 0.06297(16) 0.0280(6) Uani 1 1 d . . . . .
 N37 N 0.5069(3) 0.6220(2) 0.42499(17) 0.0310(7) Uani 1 1 d . . . . .
 N44 N 0.6349(3) 0.5417(2) 0.50569(16) 0.0317(7) Uani 1 1 d . . . . .
 N52 N -0.1573(3) 0.5596(2) -0.02029(15) 0.0305(7) Uani 1 1 d . . . . .
 N54 N 0.1679(3) 0.6012(2) -0.01119(16) 0.0294(7) Uani 1 1 d . . . . .
 N68 N 0.4636(3) 0.4654(2) 0.43776(16) 0.0308(7) Uani 1 1 d . . . . .
 N75 N 0.4516(3) 0.4736(2) 0.56428(16) 0.0323(7) Uani 1 1 d . . . . .
 N83 N -0.0052(3) 0.6622(2) -0.07305(16) 0.0320(7) Uani 1 1 d . . . . .
 N85 N 0.0325(3) 0.5046(2) -0.08672(17) 0.0329(7) Uani 1 1 d . . . . .
 C1 C 0.5585(4) 0.6687(3) 0.5948(2) 0.0408(9) Uani 1 1 d . . . . .
 H1 H 0.631215 0.656896 0.582785 0.049 Uiso 1 1 calc R U . . .
 C4 C 0.5479(5) 0.7232(3) 0.6435(2) 0.0474(11) Uani 1 1 d . . . . .
 C5 C 0.4428(5) 0.7378(3) 0.6621(3) 0.0536(13) Uani 1 1 d . . . . .
 H5 H 0.432943 0.773458 0.695840 0.064 Uiso 1 1 calc R U . . .
 C6 C 0.3508(5) 0.7007(4) 0.6319(3) 0.0537(13) Uani 1 1 d . . . . .
 H6 H 0.277865 0.709854 0.644965 0.064 Uiso 1 1 calc R U . . .
 C7 C 0.3681(4) 0.6501(3) 0.5822(2) 0.0417(10) Uani 1 1 d . . . . .
 C8 C 0.2782(4) 0.6143(3) 0.5422(2) 0.0411(10) Uani 1 1 d . . . . .
 H8 H 0.202178 0.622061 0.549946 0.049 Uiso 1 1 calc R U . . .
 C10 C 0.2167(3) 0.5423(3) 0.45138(19) 0.0331(8) Uani 1 1 d . . . . .
 C11 C 0.1500(3) 0.5926(3) 0.4132(2) 0.0357(8) Uani 1 1 d . . . . .
 H11 H 0.163209 0.644434 0.417320 0.043 Uiso 1 1 calc R U . . .
 C12 C 0.0642(3) 0.5659(3) 0.3690(2) 0.0360(8) Uani 1 1 d . . . . .
 H12 H 0.020247 0.600126 0.342313 0.043 Uiso 1 1 calc R U . . .
 C13 C 0.0412(3) 0.4902(2) 0.3631(2) 0.0335(8) Uani 1 1 d . . . . .
 C14 C -0.0530(3) 0.4632(3) 0.3152(2) 0.0366(9) Uani 1 1 d . . . . .
 H14A H -0.120569 0.492785 0.321897 0.044 Uiso 1 1 calc R U . . .
 H14B H -0.069412 0.410883 0.325988 0.044 Uiso 1 1 calc R U . . .
 C15 C -0.0299(3) 0.4677(2) 0.2426(2) 0.0322(8) Uani 1 1 d . . . . .
 C16 C 0.0758(3) 0.4802(2) 0.2212(2) 0.0333(8) Uani 1 1 d . . . . .
 H16 H 0.137731 0.485422 0.253225 0.040 Uiso 1 1 calc R U . . .
 C17 C 0.0927(3) 0.4850(2) 0.1540(2) 0.0339(8) Uani 1 1 d . . . . .
 H17 H 0.165053 0.495116 0.140447 0.041 Uiso 1 1 calc R U . . .
 C18 C 0.0037(3) 0.4751(2) 0.1071(2) 0.0325(8) Uani 1 1 d . . . . .
 C19 C -0.1028(3) 0.4611(3) 0.1266(2) 0.0371(9) Uani 1 1 d . . . . .
 H19 H -0.163708 0.453458 0.094296 0.045 Uiso 1 1 calc R U . . .
 C20 C -0.1188(3) 0.4584(3) 0.1939(2) 0.0396(9) Uani 1 1 d . . . . .
 H20 H -0.191814 0.450055 0.207237 0.047 Uiso 1 1 calc R U . . .
 C24 C 0.0416(3) 0.6799(2) 0.10900(18) 0.0278(7) Uani 1 1 d . . . . .
 C25 C 0.0369(3) 0.6685(2) 0.1775(2) 0.0322(8) Uani 1 1 d . . . . .
 H25 H -0.009192 0.630551 0.193141 0.039 Uiso 1 1 calc R U . . .
 C26 C 0.1001(3) 0.7131(2) 0.22206(19) 0.0333(8) Uani 1 1 d . . . . .
 H26 H 0.097199 0.704936 0.268381 0.040 Uiso 1 1 calc R U . . .
 C27 C 0.1676(3) 0.7694(2) 0.2009(2) 0.0324(8) Uani 1 1 d . . . . .
 C28 C 0.1716(3) 0.7802(2) 0.1329(2) 0.0323(8) Uani 1 1 d . . . . .
 H28 H 0.217869 0.818145 0.117450 0.039 Uiso 1 1 calc R U . . .
 C29 C 0.1089(3) 0.7363(2) 0.0871(2) 0.0316(8) Uani 1 1 d . . . . .
 H29 H 0.112016 0.744729 0.040844 0.038 Uiso 1 1 calc R U . . .
 C30 C 0.2364(4) 0.8157(3) 0.2519(2) 0.0393(9) Uani 1 1 d . . . . .
 H30A H 0.185948 0.845758 0.277546 0.047 Uiso 1 1 calc R U . . .
 H30B H 0.284638 0.850153 0.228879 0.047 Uiso 1 1 calc R U . . .
 C31 C 0.3087(3) 0.7666(2) 0.2991(2) 0.0339(8) Uani 1 1 d . . . . .
 C32 C 0.2995(3) 0.7669(2) 0.3674(2) 0.0359(8) Uani 1 1 d . . . . .
 H32 H 0.249296 0.800481 0.385711 0.043 Uiso 1 1 calc R U . . .
 C33 C 0.3628(3) 0.7187(2) 0.4091(2) 0.0344(8) Uani 1 1 d . . . . .
 H33 H 0.355743 0.719429 0.455676 0.041 Uiso 1 1 calc R U . . .
 C34 C 0.4364(3) 0.6694(2) 0.3825(2) 0.0316(8) Uani 1 1 d . . . . .
 C35 C 0.4468(3) 0.6689(2) 0.3139(2) 0.0339(8) Uani 1 1 d . . . . .
 H35 H 0.497529 0.635786 0.295411 0.041 Uiso 1 1 calc R U . . .
 C36 C 0.3830(3) 0.7167(3) 0.2733(2) 0.0361(8) Uani 1 1 d . . . . .
 H36 H 0.389602 0.715801 0.226741 0.043 Uiso 1 1 calc R U . . .
 C38 C 0.6106(3) 0.6198(2) 0.4129(2) 0.0333(8) Uani 1 1 d . . . . .
 H38 H 0.637022 0.646938 0.377060 0.040 Uiso 1 1 calc R U . . .
 C39 C 0.6851(3) 0.5746(3) 0.45577(19) 0.0330(8) Uani 1 1 d . . . . .
 C40 C 0.7983(3) 0.5682(3) 0.4494(2) 0.0362(8) Uani 1 1 d . . . . .
 H40 H 0.830555 0.590302 0.412751 0.043 Uiso 1 1 calc R U . . .
 C41 C 0.8644(3) 0.5293(3) 0.4970(2) 0.0383(9) Uani 1 1 d . . . . .
 H41 H 0.942497 0.524735 0.493633 0.046 Uiso 1 1 calc R U . . .
 C42 C 0.8148(3) 0.4971(3) 0.5497(2) 0.0356(8) Uani 1 1 d . . . . .
 C43 C 0.6996(3) 0.5041(3) 0.5518(2) 0.0331(8) Uani 1 1 d . . . . .
 H43 H 0.665225 0.481258 0.587275 0.040 Uiso 1 1 calc R U . . .
 C45 C 0.8811(4) 0.4546(3) 0.6033(2) 0.0406(9) Uani 1 1 d . . . . .
 H45A H 0.875454 0.401353 0.593743 0.061 Uiso 1 1 calc R U . . .
 H45B H 0.851493 0.464769 0.646259 0.061 Uiso 1 1 calc R U . . .
 H45C H 0.959517 0.469966 0.605051 0.061 Uiso 1 1 calc R U . . .
 C46 C -0.1339(3) 0.6359(2) 0.07412(19) 0.0310(8) Uani 1 1 d . . . . .
 H46 H -0.160453 0.662046 0.110527 0.037 Uiso 1 1 calc R U . . .
 C47 C -0.2087(3) 0.5933(2) 0.02912(19) 0.0322(8) Uani 1 1 d . . . . .
 C48 C -0.3224(3) 0.5880(3) 0.0343(2) 0.0360(9) Uani 1 1 d . . . . .
 H48 H -0.356409 0.612140 0.069369 0.043 Uiso 1 1 calc R U . . .
 C49 C -0.3858(3) 0.5464(3) -0.0131(2) 0.0391(9) Uani 1 1 d . . . . .
 H49 H -0.464014 0.541206 -0.010255 0.047 Uiso 1 1 calc R U . . .
 C50 C -0.3353(3) 0.5128(3) -0.0643(2) 0.0376(9) Uani 1 1 d . . . . .
 C51 C -0.2197(3) 0.5202(3) -0.06590(19) 0.0334(8) Uani 1 1 d . . . . .
 H51 H -0.184056 0.496514 -0.100515 0.040 Uiso 1 1 calc R U . . .
 C53 C -0.3991(4) 0.4671(4) -0.1166(2) 0.0475(12) Uani 1 1 d . . . . .
 H53A H -0.392613 0.414461 -0.104802 0.071 Uiso 1 1 calc R U . . .
 H53B H -0.368379 0.475343 -0.159551 0.071 Uiso 1 1 calc R U . . .
 H53C H -0.477905 0.481793 -0.119799 0.071 Uiso 1 1 calc R U . . .
 C55 C 0.2593(3) 0.5690(2) 0.02966(18) 0.0297(7) Uani 1 1 d . . . . .
 C56 C 0.2832(3) 0.4941(2) 0.0258(2) 0.0332(8) Uani 1 1 d . . . . .
 H56 H 0.240760 0.463899 -0.005530 0.040 Uiso 1 1 calc R U . . .
 C57 C 0.3687(3) 0.4624(2) 0.0673(2) 0.0337(8) Uani 1 1 d . . . . .
 H57 H 0.383349 0.410681 0.064543 0.040 Uiso 1 1 calc R U . . .
 C58 C 0.4329(3) 0.5062(3) 0.11280(19) 0.0330(8) Uani 1 1 d . . . . .
 C59 C 0.4109(3) 0.5820(3) 0.11482(19) 0.0331(8) Uani 1 1 d . . . . .
 H59 H 0.455443 0.612684 0.144730 0.040 Uiso 1 1 calc R U . . .
 C60 C 0.3245(3) 0.6138(2) 0.0736(2) 0.0323(8) Uani 1 1 d . . . . .
 H60 H 0.310381 0.665655 0.075633 0.039 Uiso 1 1 calc R U . . .
 C61 C 0.5250(3) 0.4725(3) 0.1585(2) 0.0371(9) Uani 1 1 d . . . . .
 H61A H 0.593866 0.501933 0.154982 0.044 Uiso 1 1 calc R U . . .
 H61B H 0.539731 0.421695 0.142576 0.044 Uiso 1 1 calc R U . . .
 C62 C 0.5025(3) 0.4679(2) 0.23130(19) 0.0309(7) Uani 1 1 d . . . . .
 C63 C 0.4041(3) 0.4917(3) 0.2558(2) 0.0344(8) Uani 1 1 d . . . . .
 H63 H 0.344752 0.508651 0.225572 0.041 Uiso 1 1 calc R U . . .
 C64 C 0.3901(3) 0.4914(3) 0.3233(2) 0.0343(8) Uani 1 1 d . . . . .
 H64 H 0.322575 0.509051 0.339160 0.041 Uiso 1 1 calc R U . . .
 C65 C 0.4759(3) 0.4651(2) 0.36768(19) 0.0295(7) Uani 1 1 d . . . . .
 C66 C 0.5737(3) 0.4383(3) 0.3442(2) 0.0375(9) Uani 1 1 d . . . . .
 H66 H 0.631490 0.419122 0.374366 0.045 Uiso 1 1 calc R U . . .
 C67 C 0.5866(3) 0.4397(3) 0.2767(2) 0.0373(9) Uani 1 1 d . . . . .
 H67 H 0.653578 0.421299 0.260908 0.045 Uiso 1 1 calc R U . . .
 C69 C 0.4616(3) 0.4025(3) 0.46757(19) 0.0335(8) Uani 1 1 d . . . . .
 H69 H 0.467674 0.357097 0.444233 0.040 Uiso 1 1 calc R U . . .
 C70 C 0.4497(3) 0.4040(3) 0.5382(2) 0.0339(8) Uani 1 1 d . . . . .
 C71 C 0.4337(4) 0.3409(3) 0.5751(2) 0.0387(9) Uani 1 1 d . . . . .
 H71 H 0.432263 0.293172 0.555053 0.046 Uiso 1 1 calc R U . . .
 C72 C 0.4199(4) 0.3492(3) 0.6427(2) 0.0402(9) Uani 1 1 d . . . . .
 H72 H 0.408499 0.306686 0.669190 0.048 Uiso 1 1 calc R U . . .
 C73 C 0.4226(3) 0.4186(3) 0.6709(2) 0.0401(10) Uani 1 1 d . . . . .
 C74 C 0.4387(4) 0.4800(3) 0.6295(2) 0.0373(9) Uani 1 1 d . . . . .
 H74 H 0.440465 0.528221 0.648680 0.045 Uiso 1 1 calc R U . . .
 C76 C 0.4100(5) 0.4298(4) 0.7432(2) 0.0525(12) Uani 1 1 d . . . . .
 H76A H 0.475840 0.410146 0.769224 0.079 Uiso 1 1 calc R U . . .
 H76B H 0.343075 0.403746 0.755430 0.079 Uiso 1 1 calc R U . . .
 H76C H 0.402682 0.482986 0.752282 0.079 Uiso 1 1 calc R U . . .
 C77 C 0.1900(3) 0.6549(3) -0.0502(2) 0.0339(8) Uani 1 1 d . . . . .
 H77 H 0.264650 0.669801 -0.055371 0.041 Uiso 1 1 calc R U . . .
 C78 C 0.0952(3) 0.6916(3) -0.08623(19) 0.0333(8) Uani 1 1 d . . . . .
 C79 C 0.1028(4) 0.7518(3) -0.1279(2) 0.0397(9) Uani 1 1 d . . . . .
 H79 H 0.173702 0.770283 -0.137784 0.048 Uiso 1 1 calc R U . . .
 C80 C 0.0047(4) 0.7851(3) -0.1553(2) 0.0399(9) Uani 1 1 d . . . . .
 H80 H 0.008413 0.826557 -0.184094 0.048 Uiso 1 1 calc R U . . .
 C81 C -0.0979(4) 0.7577(3) -0.1404(2) 0.0392(9) Uani 1 1 d . . . . .
 C82 C -0.0982(3) 0.6946(3) -0.09940(19) 0.0346(8) Uani 1 1 d . . . . .
 H82 H -0.168024 0.674017 -0.090075 0.042 Uiso 1 1 calc R U . . .
 C84 C -0.2058(4) 0.7929(3) -0.1651(2) 0.0478(11) Uani 1 1 d . . . . .
 H84A H -0.260184 0.754143 -0.178900 0.072 Uiso 1 1 calc R U . . .
 H84B H -0.193895 0.824875 -0.203175 0.072 Uiso 1 1 calc R U . . .
 H84C H -0.234267 0.822688 -0.129585 0.072 Uiso 1 1 calc R U . . .
 C86 C 0.0420(3) 0.4325(3) -0.0674(2) 0.0356(9) Uani 1 1 d . . . . .
 C87 C 0.0686(4) 0.3772(3) -0.1105(3) 0.0428(10) Uani 1 1 d . . . . .
 H87 H 0.074117 0.327103 -0.095981 0.051 Uiso 1 1 calc R U . . .
 C88 C 0.0874(4) 0.3957(3) -0.1758(2) 0.0456(11) Uani 1 1 d . . . . .
 H88 H 0.106255 0.357960 -0.205858 0.055 Uiso 1 1 calc R U . . .
 C89 C 0.0786(4) 0.4681(3) -0.1969(2) 0.0429(10) Uani 1 1 d . . . . .
 C90 C 0.0497(3) 0.5214(3) -0.15037(19) 0.0375(9) Uani 1 1 d . . . . .
 H90 H 0.041786 0.571647 -0.164351 0.045 Uiso 1 1 calc R U . . .
 C91 C 0.0992(5) 0.4942(4) -0.2656(2) 0.0565(14) Uani 1 1 d . . . . .
 H91A H 0.033957 0.521912 -0.284579 0.085 Uiso 1 1 calc R U . . .
 H91B H 0.111808 0.451169 -0.293793 0.085 Uiso 1 1 calc R U . . .
 H91C H 0.165079 0.526408 -0.263259 0.085 Uiso 1 1 calc R U . . .
 C92 C 0.0279(3) 0.4222(3) 0.0028(2) 0.0367(9) Uani 1 1 d . . . . .
 H92 H 0.025287 0.374230 0.022135 0.044 Uiso 1 1 calc R U . . .
 C93 C 0.1068(3) 0.4414(3) 0.4033(2) 0.0368(9) Uani 1 1 d . . . . .
 H93 H 0.091443 0.389670 0.401061 0.044 Uiso 1 1 calc R U . . .
 C94 C 0.1943(3) 0.4674(3) 0.4465(2) 0.0357(8) Uani 1 1 d . . . . .
 H94 H 0.238996 0.433216 0.472772 0.043 Uiso 1 1 calc R U . . .
 C95 C 0.6503(5) 0.7623(3) 0.6734(3) 0.0556(13) Uani 1 1 d . . . . .
 H95A H 0.698086 0.726874 0.699207 0.083 Uiso 1 1 calc R U . . .
 H95B H 0.628199 0.802235 0.702567 0.083 Uiso 1 1 calc R U . . .
 H95C H 0.691360 0.783382 0.637824 0.083 Uiso 1 1 calc R U . . .
 N1_5 N 0.2557(5) 0.2883(4) -0.0025(3) 0.0697(15) Uani 1 1 d . . . . .
 C2_5 C 0.3176(5) 0.2917(3) -0.0416(3) 0.0551(13) Uani 1 1 d . . . . .
 C3_5 C 0.3951(6) 0.2956(6) -0.0935(3) 0.086(3) Uani 1 1 d . . . . .
 H3A_5 H 0.368818 0.263228 -0.130502 0.129 Uiso 1 1 calc R U . . .
 H3B_5 H 0.469386 0.279414 -0.075393 0.129 Uiso 1 1 calc R U . . .
 H3C_5 H 0.399277 0.346887 -0.109346 0.129 Uiso 1 1 calc R U . . .
 N1_6 N -0.2273(5) 0.7672(4) 0.5180(3) 0.0679(13) Uani 1 1 d . . . . .
 C2_6 C -0.1638(6) 0.7630(4) 0.4799(4) 0.0669(17) Uani 1 1 d . . . . .
 C3_6 C -0.0816(6) 0.7579(6) 0.4306(5) 0.110(4) Uani 1 1 d . . . . .
 H3A_6 H -0.119650 0.746917 0.386927 0.165 Uiso 1 1 calc R U . . .
 H3B_6 H -0.028251 0.718176 0.443254 0.165 Uiso 1 1 calc R U . . .
 H3C_6 H -0.041605 0.805194 0.428675 0.165 Uiso 1 1 calc R U . . .
 N1_7 N 1.0308(6) 0.6181(5) 0.5986(4) 0.097(2) Uani 1 1 d . . . . .
 C2_7 C 1.0016(5) 0.6652(4) 0.6321(3) 0.0647(16) Uani 1 1 d . . . . .
 C3_7 C 0.9662(7) 0.7219(6) 0.6711(5) 0.092(3) Uani 1 1 d . . . . .
 H3A_7 H 0.926279 0.759144 0.642740 0.138 Uiso 1 1 calc R U . . .
 H3B_7 H 1.030960 0.745094 0.695542 0.138 Uiso 1 1 calc R U . . .
 H3C_7 H 0.916061 0.701958 0.702620 0.138 Uiso 1 1 calc R U . . .
 N1_8 N 0.3182(10) 0.6138(8) 0.8177(7) 0.187(7) Uani 1 1 d . . . . .
 C2_8 C 0.4010(8) 0.6438(6) 0.8281(5) 0.094(3) Uani 1 1 d . . . . .
 C3_8 C 0.5028(7) 0.6842(6) 0.8451(4) 0.087(2) Uani 1 1 d . . . . .
 H3A_8 H 0.563121 0.662943 0.821241 0.130 Uiso 1 1 calc R U . . .
 H3B_8 H 0.522367 0.680753 0.893075 0.130 Uiso 1 1 calc R U . . .
 H3C_8 H 0.492213 0.736445 0.832469 0.130 Uiso 1 1 calc R U . . .
 F2_1 F 0.5649(2) 0.37776(18) 0.01524(14) 0.0469(6) Uani 1 1 d . . . . .
 F3_1 F 0.6059(5) 0.2561(3) 0.0113(4) 0.127(3) Uani 1 1 d . . . . .
 F4_1 F 0.7457(3) 0.3402(3) 0.01278(19) 0.0856(15) Uani 1 1 d . . . . .
 F5_1 F 0.6553(3) 0.3203(2) 0.10405(18) 0.0662(10) Uani 1 1 d . . . . .
 B1_1 B 0.6434(5) 0.3249(4) 0.0346(3) 0.0490(13) Uani 1 1 d . . . . .
 F2_2 F 0.2925(4) 0.2176(2) 0.7033(2) 0.0764(11) Uani 1 1 d . . . . .
 F3_2 F 0.1684(3) 0.1333(3) 0.7252(2) 0.0859(14) Uani 1 1 d . . . . .
 F4_2 F 0.3299(4) 0.1423(3) 0.7911(2) 0.0975(16) Uani 1 1 d . . . . .
 F5_2 F 0.1997(2) 0.23156(18) 0.79495(14) 0.0481(6) Uani 1 1 d . . . . .
 B1_2 B 0.2490(4) 0.1805(3) 0.7549(2) 0.0379(10) Uani 1 1 d . . . . .
 F2_3 F 0.2687(3) 0.8543(2) 0.5299(2) 0.0731(10) Uani 1 1 d . . . . .
 F3_3 F 0.1633(3) 0.7527(2) 0.5177(2) 0.0696(10) Uani 1 1 d . . . . .
 F4_3 F 0.1726(4) 0.8177(2) 0.61476(18) 0.0787(12) Uani 1 1 d . . . . .
 F5_3 F 0.0757(3) 0.86453(18) 0.52163(16) 0.0533(7) Uani 1 1 d . . . . .
 B1_3 B 0.1688(5) 0.8221(3) 0.5459(3) 0.0460(12) Uani 1 1 d . . . . .
 F2_4 F 0.7333(5) 0.6140(3) 0.79556(19) 0.0890(14) Uani 1 1 d . . . . .
 F3_4 F 0.6374(4) 0.5426(5) 0.7229(3) 0.136(3) Uani 1 1 d . . . . .
 F4_4 F 0.7846(4) 0.5963(2) 0.6898(2) 0.0803(12) Uani 1 1 d . . . . .
 F5_4 F 0.8008(4) 0.5041(2) 0.76922(19) 0.0751(11) Uani 1 1 d . . . . .
 B1_4 B 0.7417(4) 0.5649(3) 0.7445(2) 0.0405(10) Uani 1 1 d . . . . .

loop_
  _atom_site_aniso_label
  _atom_site_aniso_U_11
  _atom_site_aniso_U_22
  _atom_site_aniso_U_33
  _atom_site_aniso_U_23
  _atom_site_aniso_U_13
  _atom_site_aniso_U_12
 Fe1 0.0284(3) 0.0314(3) 0.0286(3) -0.0005(2) -0.0009(2) 0.0024(2)
 Fe22 0.0242(3) 0.0304(3) 0.0294(3) -0.0020(2) -0.0012(2) -0.0022(2)
 N2 0.0399(18) 0.0323(19) 0.0322(16) -0.0012(13) -0.0025(13) 0.0035(15)
 N9 0.0313(15) 0.039(2) 0.0337(15) -0.0022(14) 0.0031(12) 0.0047(14)
 N21 0.0288(15) 0.0328(19) 0.0337(16) -0.0021(13) -0.0005(12) -0.0051(13)
 N23 0.0243(14) 0.0292(17) 0.0302(15) -0.0002(12) 0.0003(11) 0.0004(12)
 N37 0.0294(15) 0.0291(17) 0.0340(16) -0.0005(13) -0.0009(12) 0.0015(13)
 N44 0.0301(15) 0.0325(18) 0.0321(15) -0.0018(13) -0.0004(12) 0.0033(13)
 N52 0.0275(14) 0.0327(19) 0.0307(14) -0.0009(13) -0.0007(11) -0.0026(13)
 N54 0.0243(14) 0.0337(18) 0.0298(15) -0.0047(12) -0.0011(11) -0.0010(12)
 N68 0.0296(15) 0.0315(18) 0.0307(15) 0.0017(13) -0.0006(12) 0.0021(13)
 N75 0.0276(15) 0.041(2) 0.0274(15) 0.0012(13) -0.0026(12) 0.0016(13)
 N83 0.0303(15) 0.0343(19) 0.0308(15) -0.0001(13) -0.0006(12) -0.0037(13)
 N85 0.0249(14) 0.0344(19) 0.0387(17) -0.0069(14) -0.0011(12) -0.0030(13)
 C1 0.048(2) 0.036(2) 0.037(2) -0.0010(17) -0.0060(18) 0.0009(19)
 C4 0.063(3) 0.037(3) 0.039(2) -0.0008(18) -0.016(2) 0.002(2)
 C5 0.067(3) 0.052(3) 0.040(2) -0.013(2) -0.010(2) 0.014(3)
 C6 0.055(3) 0.060(4) 0.044(2) -0.014(2) -0.005(2) 0.015(2)
 C7 0.043(2) 0.046(3) 0.036(2) -0.0062(18) 0.0018(17) 0.011(2)
 C8 0.038(2) 0.047(3) 0.037(2) -0.0035(18) 0.0001(16) 0.0088(19)
 C10 0.0272(17) 0.038(2) 0.0346(18) -0.0024(16) 0.0047(14) 0.0034(16)
 C11 0.0335(19) 0.033(2) 0.040(2) -0.0005(16) 0.0039(15) 0.0009(16)
 C12 0.0309(17) 0.037(2) 0.0403(19) 0.0013(16) 0.0038(15) -0.0002(16)
 C13 0.0289(17) 0.036(2) 0.0366(19) 0.0012(16) 0.0072(15) 0.0008(15)
 C14 0.0325(19) 0.040(2) 0.037(2) 0.0010(17) 0.0042(15) -0.0063(17)
 C15 0.0281(17) 0.031(2) 0.0375(19) 0.0025(15) 0.0037(14) -0.0021(14)
 C16 0.0266(17) 0.037(2) 0.0360(19) -0.0006(15) -0.0003(14) -0.0024(15)
 C17 0.0272(17) 0.038(2) 0.0366(19) -0.0009(16) 0.0037(15) -0.0055(15)
 C18 0.0277(18) 0.031(2) 0.039(2) 0.0033(15) 0.0027(15) -0.0040(15)
 C19 0.0248(17) 0.046(3) 0.041(2) 0.0067(18) 0.0003(15) -0.0050(16)
 C20 0.0272(18) 0.049(3) 0.042(2) 0.0037(19) 0.0031(16) -0.0058(17)
 C24 0.0250(16) 0.0278(19) 0.0300(17) -0.0026(14) -0.0014(13) -0.0004(14)
 C25 0.0310(18) 0.031(2) 0.0340(18) -0.0015(15) -0.0028(14) -0.0019(15)
 C26 0.0353(19) 0.035(2) 0.0286(17) 0.0001(15) -0.0043(14) 0.0009(16)
 C27 0.0318(18) 0.0262(19) 0.0373(19) 0.0010(15) -0.0082(15) 0.0050(14)
 C28 0.0309(17) 0.0261(19) 0.039(2) 0.0015(15) -0.0020(15) -0.0004(15)
 C29 0.0298(17) 0.028(2) 0.0366(18) -0.0027(15) 0.0017(14) -0.0012(15)
 C30 0.044(2) 0.028(2) 0.044(2) -0.0024(16) -0.0101(17) 0.0008(17)
 C31 0.0357(19) 0.025(2) 0.039(2) -0.0031(15) -0.0088(15) -0.0025(15)
 C32 0.0345(19) 0.030(2) 0.042(2) -0.0049(16) -0.0059(16) 0.0037(16)
 C33 0.0338(18) 0.032(2) 0.0370(19) 0.0009(16) -0.0022(15) 0.0027(16)
 C34 0.0291(17) 0.029(2) 0.0359(19) 0.0000(15) -0.0045(14) 0.0013(15)
 C35 0.0327(18) 0.032(2) 0.0359(19) -0.0016(15) -0.0025(15) 0.0021(15)
 C36 0.037(2) 0.034(2) 0.0349(19) -0.0010(16) -0.0074(15) 0.0014(16)
 C38 0.0323(18) 0.035(2) 0.0321(18) 0.0005(15) -0.0017(15) 0.0024(16)
 C39 0.0317(17) 0.033(2) 0.0335(17) 0.0001(16) 0.0000(14) 0.0033(16)
 C40 0.0336(18) 0.038(2) 0.0364(18) 0.0013(16) 0.0017(15) 0.0016(17)
 C41 0.0312(18) 0.046(3) 0.037(2) 0.0023(17) 0.0009(16) 0.0037(17)
 C42 0.0332(19) 0.037(2) 0.0356(19) 0.0001(16) -0.0036(15) 0.0024(16)
 C43 0.0280(17) 0.036(2) 0.0338(18) 0.0018(15) -0.0045(14) 0.0027(15)
 C45 0.0336(19) 0.050(3) 0.037(2) 0.0042(18) -0.0049(16) 0.0043(18)
 C46 0.0265(16) 0.034(2) 0.0318(17) -0.0026(15) -0.0017(14) 0.0013(15)
 C47 0.0268(17) 0.037(2) 0.0320(18) 0.0006(15) -0.0021(14) -0.0033(15)
 C48 0.0315(18) 0.042(3) 0.0344(19) -0.0002(16) 0.0003(15) -0.0048(16)
 C49 0.0251(16) 0.055(3) 0.0370(19) 0.0022(19) -0.0022(14) -0.0091(17)
 C50 0.0341(19) 0.045(3) 0.0330(19) 0.0000(17) -0.0037(15) -0.0090(17)
 C51 0.0282(17) 0.040(2) 0.0313(17) -0.0022(15) -0.0033(14) -0.0075(16)
 C53 0.034(2) 0.072(4) 0.036(2) -0.005(2) -0.0024(16) -0.019(2)
 C55 0.0221(14) 0.034(2) 0.0327(16) -0.0012(15) 0.0013(13) -0.0033(14)
 C56 0.0246(16) 0.036(2) 0.0391(19) -0.0049(16) 0.0022(14) -0.0024(15)
 C57 0.0294(18) 0.032(2) 0.040(2) -0.0008(16) 0.0069(15) -0.0015(15)
 C58 0.0293(17) 0.041(2) 0.0291(17) 0.0000(15) 0.0060(14) 0.0010(16)
 C59 0.0255(16) 0.042(2) 0.0316(17) -0.0032(16) -0.0006(13) 0.0015(15)
 C60 0.0300(18) 0.030(2) 0.0371(19) -0.0010(15) 0.0017(15) -0.0007(15)
 C61 0.0304(18) 0.046(3) 0.035(2) -0.0009(17) 0.0034(15) 0.0067(17)
 C62 0.0286(17) 0.031(2) 0.0338(18) 0.0002(15) 0.0044(14) -0.0005(15)
 C63 0.0272(17) 0.044(2) 0.0318(18) 0.0001(16) -0.0009(14) 0.0037(16)
 C64 0.0258(17) 0.043(2) 0.0337(19) -0.0052(16) 0.0012(14) 0.0057(16)
 C65 0.0276(17) 0.031(2) 0.0299(17) -0.0013(14) 0.0002(13) -0.0004(14)
 C66 0.0286(18) 0.048(3) 0.036(2) 0.0068(17) 0.0022(15) 0.0067(17)
 C67 0.0309(19) 0.045(3) 0.037(2) 0.0041(17) 0.0069(15) 0.0071(17)
 C69 0.0331(18) 0.035(2) 0.0318(19) -0.0017(15) -0.0005(15) 0.0035(15)
 C70 0.0308(18) 0.038(2) 0.0328(19) 0.0021(15) -0.0011(15) 0.0027(16)
 C71 0.037(2) 0.041(3) 0.038(2) 0.0061(17) -0.0009(16) 0.0027(17)
 C72 0.037(2) 0.046(3) 0.036(2) 0.0118(18) -0.0046(16) 0.0037(18)
 C73 0.0302(19) 0.056(3) 0.033(2) 0.0058(18) -0.0041(15) 0.0012(18)
 C74 0.037(2) 0.045(3) 0.0295(19) 0.0008(16) 0.0014(15) 0.0004(17)
 C76 0.055(3) 0.067(4) 0.036(2) 0.004(2) 0.000(2) -0.002(2)
 C77 0.0289(17) 0.038(2) 0.0347(19) 0.0002(16) 0.0017(14) -0.0065(15)
 C78 0.0343(19) 0.037(2) 0.0281(17) -0.0001(15) 0.0001(14) -0.0045(16)
 C79 0.040(2) 0.045(3) 0.0336(19) 0.0014(17) -0.0025(16) -0.0050(18)
 C80 0.046(2) 0.040(2) 0.0324(19) 0.0026(16) -0.0074(16) -0.0048(19)
 C81 0.044(2) 0.040(2) 0.0320(19) -0.0003(16) -0.0062(16) 0.0002(18)
 C82 0.0332(18) 0.037(2) 0.0320(18) 0.0030(16) -0.0054(15) 0.0013(16)
 C84 0.047(2) 0.050(3) 0.044(2) 0.008(2) -0.0125(19) 0.001(2)
 C86 0.0285(17) 0.040(2) 0.038(2) -0.0055(17) 0.0010(15) -0.0050(16)
 C87 0.033(2) 0.038(2) 0.058(3) -0.013(2) 0.0031(18) -0.0050(17)
 C88 0.034(2) 0.056(3) 0.046(2) -0.020(2) 0.0009(18) -0.0049(19)
 C89 0.036(2) 0.054(3) 0.037(2) -0.0131(19) -0.0064(16) -0.0040(19)
 C90 0.0356(19) 0.049(3) 0.0269(17) -0.0058(16) -0.0015(14) -0.0007(17)
 C91 0.059(3) 0.075(4) 0.034(2) -0.011(2) -0.002(2) 0.003(3)
 C92 0.0314(19) 0.031(2) 0.048(2) -0.0022(17) 0.0052(16) -0.0047(15)
 C93 0.0342(19) 0.036(2) 0.041(2) 0.0043(17) 0.0069(16) -0.0011(16)
 C94 0.0318(18) 0.036(2) 0.039(2) 0.0047(16) 0.0032(15) 0.0013(16)
 C95 0.068(3) 0.044(3) 0.050(3) -0.009(2) -0.019(2) 0.002(2)
 N1_5 0.079(4) 0.063(4) 0.068(3) -0.008(3) 0.006(3) -0.017(3)
 C2_5 0.062(3) 0.049(3) 0.052(3) 0.001(2) -0.010(3) -0.016(2)
 C3_5 0.074(4) 0.126(7) 0.057(3) -0.002(4) -0.003(3) -0.051(5)
 N1_6 0.064(3) 0.063(4) 0.075(3) -0.001(3) -0.005(3) 0.000(3)
 C2_6 0.055(3) 0.057(4) 0.084(4) -0.023(3) -0.017(3) 0.002(3)
 C3_6 0.060(4) 0.141(9) 0.132(8) -0.087(7) 0.017(4) -0.031(5)
 N1_7 0.091(5) 0.089(5) 0.118(6) -0.035(4) 0.049(4) -0.032(4)
 C2_7 0.060(3) 0.078(5) 0.057(3) 0.000(3) 0.013(3) -0.016(3)
 C3_7 0.086(5) 0.089(6) 0.104(6) -0.020(5) 0.026(5) -0.013(5)
 N1_8 0.169(10) 0.198(13) 0.214(12) -0.134(11) 0.130(10) -0.104(10)
 C2_8 0.092(6) 0.096(6) 0.100(6) -0.037(5) 0.050(5) -0.006(5)
 C3_8 0.072(4) 0.098(6) 0.093(5) 0.003(5) 0.020(4) 0.014(4)
 F2_1 0.0408(13) 0.0494(17) 0.0503(14) -0.0035(12) 0.0017(11) 0.0159(12)
 F3_1 0.109(4) 0.069(3) 0.190(6) -0.070(4) -0.072(4) 0.041(3)
 F4_1 0.0468(17) 0.151(5) 0.060(2) 0.015(2) 0.0133(15) 0.031(2)
 F5_1 0.0565(18) 0.081(3) 0.063(2) 0.0152(17) 0.0142(15) 0.0275(18)
 B1_1 0.038(2) 0.049(3) 0.059(3) -0.016(2) -0.005(2) 0.015(2)
 F2_2 0.093(3) 0.066(2) 0.077(2) 0.0101(19) 0.046(2) 0.006(2)
 F3_2 0.060(2) 0.084(3) 0.115(3) -0.051(3) 0.012(2) -0.021(2)
 F4_2 0.110(3) 0.090(3) 0.087(3) 0.003(2) -0.027(2) 0.053(3)
 F5_2 0.0446(14) 0.0502(17) 0.0504(15) -0.0115(12) 0.0102(11) -0.0041(12)
 B1_2 0.033(2) 0.040(3) 0.040(2) 0.0000(19) 0.0030(18) -0.0029(19)
 F2_3 0.0536(19) 0.074(3) 0.089(3) 0.019(2) -0.0057(17) -0.0051(17)
 F3_3 0.073(2) 0.049(2) 0.086(2) -0.0229(17) -0.0045(18) 0.0113(17)
 F4_3 0.111(3) 0.076(3) 0.0516(18) 0.0058(16) 0.0218(19) 0.043(2)
 F5_3 0.0528(16) 0.0435(17) 0.0643(18) -0.0052(13) 0.0089(13) 0.0074(13)
 B1_3 0.054(3) 0.035(3) 0.050(3) 0.001(2) 0.010(2) 0.007(2)
 F2_4 0.142(4) 0.064(3) 0.058(2) -0.0176(18) -0.008(2) 0.031(3)
 F3_4 0.096(3) 0.217(8) 0.087(3) 0.041(4) -0.042(3) -0.085(4)
 F4_4 0.102(3) 0.067(3) 0.077(2) 0.0183(19) 0.038(2) 0.000(2)
 F5_4 0.099(3) 0.063(2) 0.065(2) 0.0078(17) 0.0165(19) 0.034(2)
 B1_4 0.046(2) 0.036(3) 0.040(2) 0.0010(18) 0.0051(19) 0.0008(19)

_geom_special_details
;
 All esds (except the esd in the dihedral angle between two l.s. planes)
 are estimated using the full covariance matrix.  The cell esds are taken
 into account individually in the estimation of esds in distances, angles
 and torsion angles; correlations between esds in cell parameters are only
 used when they are defined by crystal symmetry.  An approximate (isotropic)
 treatment of cell esds is used for estimating esds involving l.s. planes.
;
loop_
  _geom_bond_atom_site_label_1
  _geom_bond_atom_site_label_2
  _geom_bond_distance
  _geom_bond_site_symmetry_2
  _geom_bond_publ_flag
 Fe1 N2 1.969(4) . ?
 Fe1 N9 1.986(3) . ?
 Fe1 N37 2.003(4) . ?
 Fe1 N44 1.982(3) . ?
 Fe1 N68 1.985(4) . ?
 Fe1 N75 1.985(4) . ?
 Fe22 N21 1.965(4) . ?
 Fe22 N23 1.992(3) . ?
 Fe22 N52 1.984(3) . ?
 Fe22 N54 1.988(3) . ?
 Fe22 N83 1.975(4) . ?
 Fe22 N85 1.981(4) . ?
 N2 C1 1.334(6) . ?
 N2 C7 1.358(6) . ?
 N9 C8 1.291(6) . ?
 N9 C10 1.440(5) . ?
 N21 C18 1.440(5) . ?
 N21 C92 1.292(6) . ?
 N23 C24 1.437(5) . ?
 N23 C46 1.290(5) . ?
 N37 C34 1.435(5) . ?
 N37 C38 1.288(5) . ?
 N44 C39 1.353(5) . ?
 N44 C43 1.345(5) . ?
 N52 C47 1.358(5) . ?
 N52 C51 1.342(5) . ?
 N54 C55 1.441(5) . ?
 N54 C77 1.288(6) . ?
 N68 C65 1.434(5) . ?
 N68 C69 1.283(6) . ?
 N75 C70 1.359(6) . ?
 N75 C74 1.344(5) . ?
 N83 C78 1.363(5) . ?
 N83 C82 1.331(5) . ?
 N85 C86 1.359(6) . ?
 N85 C90 1.352(5) . ?
 C1 H1 0.9500 . ?
 C1 C4 1.402(7) . ?
 C4 C5 1.372(8) . ?
 C4 C95 1.499(7) . ?
 C5 H5 0.9500 . ?
 C5 C6 1.390(8) . ?
 C6 H6 0.9500 . ?
 C6 C7 1.384(7) . ?
 C7 C8 1.446(7) . ?
 C8 H8 0.9500 . ?
 C10 C11 1.398(6) . ?
 C10 C94 1.378(7) . ?
 C11 H11 0.9500 . ?
 C11 C12 1.392(6) . ?
 C12 H12 0.9500 . ?
 C12 C13 1.395(7) . ?
 C13 C14 1.507(6) . ?
 C13 C93 1.395(6) . ?
 C14 H14A 0.9900 . ?
 C14 H14B 0.9900 . ?
 C14 C15 1.517(5) . ?
 C15 C16 1.391(5) . ?
 C15 C20 1.401(6) . ?
 C16 H16 0.9500 . ?
 C16 C17 1.390(6) . ?
 C17 H17 0.9500 . ?
 C17 C18 1.380(6) . ?
 C18 C19 1.391(5) . ?
 C19 H19 0.9500 . ?
 C19 C20 1.387(6) . ?
 C20 H20 0.9500 . ?
 C24 C25 1.403(5) . ?
 C24 C29 1.392(6) . ?
 C25 H25 0.9500 . ?
 C25 C26 1.386(6) . ?
 C26 H26 0.9500 . ?
 C26 C27 1.388(6) . ?
 C27 C28 1.390(6) . ?
 C27 C30 1.516(6) . ?
 C28 H28 0.9500 . ?
 C28 C29 1.389(6) . ?
 C29 H29 0.9500 . ?
 C30 H30A 0.9900 . ?
 C30 H30B 0.9900 . ?
 C30 C31 1.520(6) . ?
 C31 C32 1.391(6) . ?
 C31 C36 1.396(6) . ?
 C32 H32 0.9500 . ?
 C32 C33 1.392(6) . ?
 C33 H33 0.9500 . ?
 C33 C34 1.392(6) . ?
 C34 C35 1.402(6) . ?
 C35 H35 0.9500 . ?
 C35 C36 1.378(6) . ?
 C36 H36 0.9500 . ?
 C38 H38 0.9500 . ?
 C38 C39 1.444(5) . ?
 C39 C40 1.381(5) . ?
 C40 H40 0.9500 . ?
 C40 C41 1.385(6) . ?
 C41 H41 0.9500 . ?
 C41 C42 1.388(6) . ?
 C42 C43 1.393(6) . ?
 C42 C45 1.499(6) . ?
 C43 H43 0.9500 . ?
 C45 H45A 0.9800 . ?
 C45 H45B 0.9800 . ?
 C45 H45C 0.9800 . ?
 C46 H46 0.9500 . ?
 C46 C47 1.444(5) . ?
 C47 C48 1.382(5) . ?
 C48 H48 0.9500 . ?
 C48 C49 1.393(6) . ?
 C49 H49 0.9500 . ?
 C49 C50 1.380(6) . ?
 C50 C51 1.399(6) . ?
 C50 C53 1.498(6) . ?
 C51 H51 0.9500 . ?
 C53 H53A 0.9800 . ?
 C53 H53B 0.9800 . ?
 C53 H53C 0.9800 . ?
 C55 C56 1.383(6) . ?
 C55 C60 1.392(5) . ?
 C56 H56 0.9500 . ?
 C56 C57 1.393(6) . ?
 C57 H57 0.9500 . ?
 C57 C58 1.395(6) . ?
 C58 C59 1.392(6) . ?
 C58 C61 1.509(6) . ?
 C59 H59 0.9500 . ?
 C59 C60 1.399(6) . ?
 C60 H60 0.9500 . ?
 C61 H61A 0.9900 . ?
 C61 H61B 0.9900 . ?
 C61 C62 1.518(5) . ?
 C62 C63 1.386(5) . ?
 C62 C67 1.402(6) . ?
 C63 H63 0.9500 . ?
 C63 C64 1.387(5) . ?
 C64 H64 0.9500 . ?
 C64 C65 1.392(5) . ?
 C65 C66 1.389(5) . ?
 C66 H66 0.9500 . ?
 C66 C67 1.384(6) . ?
 C67 H67 0.9500 . ?
 C69 H69 0.9500 . ?
 C69 C70 1.445(5) . ?
 C70 C71 1.380(6) . ?
 C71 H71 0.9500 . ?
 C71 C72 1.395(6) . ?
 C72 H72 0.9500 . ?
 C72 C73 1.374(8) . ?
 C73 C74 1.407(7) . ?
 C73 C76 1.493(6) . ?
 C74 H74 0.9500 . ?
 C76 H76A 0.9800 . ?
 C76 H76B 0.9800 . ?
 C76 H76C 0.9800 . ?
 C77 H77 0.9500 . ?
 C77 C78 1.458(6) . ?
 C78 C79 1.380(6) . ?
 C79 H79 0.9500 . ?
 C79 C80 1.395(6) . ?
 C80 H80 0.9500 . ?
 C80 C81 1.384(7) . ?
 C81 C82 1.407(6) . ?
 C81 C84 1.491(6) . ?
 C82 H82 0.9500 . ?
 C84 H84A 0.9800 . ?
 C84 H84B 0.9800 . ?
 C84 H84C 0.9800 . ?
 C86 C87 1.377(6) . ?
 C86 C92 1.451(6) . ?
 C87 H87 0.9500 . ?
 C87 C88 1.396(7) . ?
 C88 H88 0.9500 . ?
 C88 C89 1.373(8) . ?
 C89 C90 1.407(6) . ?
 C89 C91 1.504(7) . ?
 C90 H90 0.9500 . ?
 C91 H91A 0.9800 . ?
 C91 H91B 0.9800 . ?
 C91 H91C 0.9800 . ?
 C92 H92 0.9500 . ?
 C93 H93 0.9500 . ?
 C93 C94 1.391(6) . ?
 C94 H94 0.9500 . ?
 C95 H95A 0.9800 . ?
 C95 H95B 0.9800 . ?
 C95 H95C 0.9800 . ?
 N1_5 C2_5 1.130(8) . ?
 C2_5 C3_5 1.458(9) . ?
 C3_5 H3A_5 0.9800 . ?
 C3_5 H3B_5 0.9800 . ?
 C3_5 H3C_5 0.9800 . ?
 N1_6 C2_6 1.129(9) . ?
 C2_6 C3_6 1.461(11) . ?
 C3_6 H3A_6 0.9800 . ?
 C3_6 H3B_6 0.9800 . ?
 C3_6 H3C_6 0.9800 . ?
 N1_7 C2_7 1.157(10) . ?
 C2_7 C3_7 1.377(11) . ?
 C3_7 H3A_7 0.9800 . ?
 C3_7 H3B_7 0.9800 . ?
 C3_7 H3C_7 0.9800 . ?
 N1_8 C2_8 1.136(13) . ?
 C2_8 C3_8 1.440(13) . ?
 C3_8 H3A_8 0.9800 . ?
 C3_8 H3B_8 0.9800 . ?
 C3_8 H3C_8 0.9800 . ?
 F2_1 B1_1 1.375(6) . ?
 F3_1 B1_1 1.386(8) . ?
 F4_1 B1_1 1.367(7) . ?
 F5_1 B1_1 1.400(7) . ?
 F2_2 B1_2 1.376(6) . ?
 F3_2 B1_2 1.387(6) . ?
 F4_2 B1_2 1.354(6) . ?
 F5_2 B1_2 1.387(6) . ?
 F2_3 B1_3 1.394(7) . ?
 F3_3 B1_3 1.373(7) . ?
 F4_3 B1_3 1.389(7) . ?
 F5_3 B1_3 1.409(7) . ?
 F2_4 B1_4 1.368(7) . ?
 F3_4 B1_4 1.353(7) . ?
 F4_4 B1_4 1.377(6) . ?
 F5_4 B1_4 1.376(7) . ?

loop_
  _geom_angle_atom_site_label_1
  _geom_angle_atom_site_label_2
  _geom_angle_atom_site_label_3
  _geom_angle
  _geom_angle_site_symmetry_1
  _geom_angle_site_symmetry_3
  _geom_angle_publ_flag
 N2 Fe1 N9 81.30(15) . . ?
 N2 Fe1 N37 93.26(15) . . ?
 N2 Fe1 N44 93.79(15) . . ?
 N2 Fe1 N68 174.04(15) . . ?
 N2 Fe1 N75 93.32(15) . . ?
 N9 Fe1 N37 99.00(14) . . ?
 N44 Fe1 N9 175.09(15) . . ?
 N44 Fe1 N37 81.02(14) . . ?
 N44 Fe1 N68 87.62(14) . . ?
 N44 Fe1 N75 92.24(14) . . ?
 N68 Fe1 N9 97.28(15) . . ?
 N68 Fe1 N37 92.68(14) . . ?
 N68 Fe1 N75 80.83(15) . . ?
 N75 Fe1 N9 88.25(15) . . ?
 N75 Fe1 N37 170.87(15) . . ?
 N21 Fe22 N23 94.62(14) . . ?
 N21 Fe22 N52 87.12(14) . . ?
 N21 Fe22 N54 99.13(14) . . ?
 N21 Fe22 N83 174.60(15) . . ?
 N21 Fe22 N85 80.75(15) . . ?
 N52 Fe22 N23 81.14(13) . . ?
 N52 Fe22 N54 173.59(15) . . ?
 N54 Fe22 N23 96.87(13) . . ?
 N83 Fe22 N23 90.67(14) . . ?
 N83 Fe22 N52 92.65(14) . . ?
 N83 Fe22 N54 81.26(14) . . ?
 N83 Fe22 N85 93.89(15) . . ?
 N85 Fe22 N23 173.85(15) . . ?
 N85 Fe22 N52 94.52(13) . . ?
 N85 Fe22 N54 87.90(13) . . ?
 C1 N2 Fe1 129.2(3) . . ?
 C1 N2 C7 117.7(4) . . ?
 C7 N2 Fe1 113.0(3) . . ?
 C8 N9 Fe1 113.8(3) . . ?
 C8 N9 C10 115.9(3) . . ?
 C10 N9 Fe1 130.3(3) . . ?
 C18 N21 Fe22 125.2(3) . . ?
 C92 N21 Fe22 115.4(3) . . ?
 C92 N21 C18 118.8(4) . . ?
 C24 N23 Fe22 130.4(2) . . ?
 C46 N23 Fe22 114.0(3) . . ?
 C46 N23 C24 115.5(3) . . ?
 C34 N37 Fe1 130.7(3) . . ?
 C38 N37 Fe1 113.2(3) . . ?
 C38 N37 C34 116.0(3) . . ?
 C39 N44 Fe1 113.5(3) . . ?
 C43 N44 Fe1 128.6(3) . . ?
 C43 N44 C39 117.9(3) . . ?
 C47 N52 Fe22 113.6(3) . . ?
 C51 N52 Fe22 127.8(3) . . ?
 C51 N52 C47 118.5(3) . . ?
 C55 N54 Fe22 127.8(3) . . ?
 C77 N54 Fe22 114.4(3) . . ?
 C77 N54 C55 117.8(3) . . ?
 C65 N68 Fe1 127.0(3) . . ?
 C69 N68 Fe1 114.6(3) . . ?
 C69 N68 C65 117.8(4) . . ?
 C70 N75 Fe1 113.7(3) . . ?
 C74 N75 Fe1 129.0(3) . . ?
 C74 N75 C70 117.3(4) . . ?
 C78 N83 Fe22 113.9(3) . . ?
 C82 N83 Fe22 127.5(3) . . ?
 C82 N83 C78 118.6(4) . . ?
 C86 N85 Fe22 114.2(3) . . ?
 C90 N85 Fe22 127.4(3) . . ?
 C90 N85 C86 118.1(4) . . ?
 N2 C1 H1 118.3 . . ?
 N2 C1 C4 123.4(5) . . ?
 C4 C1 H1 118.3 . . ?
 C1 C4 C95 119.5(5) . . ?
 C5 C4 C1 117.7(5) . . ?
 C5 C4 C95 122.8(5) . . ?
 C4 C5 H5 119.9 . . ?
 C4 C5 C6 120.3(5) . . ?
 C6 C5 H5 119.9 . . ?
 C5 C6 H6 120.9 . . ?
 C7 C6 C5 118.3(5) . . ?
 C7 C6 H6 120.9 . . ?
 N2 C7 C6 122.5(5) . . ?
 N2 C7 C8 114.1(4) . . ?
 C6 C7 C8 123.3(4) . . ?
 N9 C8 C7 116.5(4) . . ?
 N9 C8 H8 121.8 . . ?
 C7 C8 H8 121.8 . . ?
 C11 C10 N9 118.3(4) . . ?
 C94 C10 N9 122.0(4) . . ?
 C94 C10 C11 119.7(4) . . ?
 C10 C11 H11 120.3 . . ?
 C12 C11 C10 119.4(4) . . ?
 C12 C11 H11 120.3 . . ?
 C11 C12 H12 119.2 . . ?
 C11 C12 C13 121.6(4) . . ?
 C13 C12 H12 119.2 . . ?
 C12 C13 C14 120.3(4) . . ?
 C93 C13 C12 117.9(4) . . ?
 C93 C13 C14 121.8(4) . . ?
 C13 C14 H14A 108.6 . . ?
 C13 C14 H14B 108.6 . . ?
 C13 C14 C15 114.5(3) . . ?
 H14A C14 H14B 107.6 . . ?
 C15 C14 H14A 108.6 . . ?
 C15 C14 H14B 108.6 . . ?
 C16 C15 C14 123.5(4) . . ?
 C16 C15 C20 117.7(4) . . ?
 C20 C15 C14 118.8(3) . . ?
 C15 C16 H16 119.2 . . ?
 C17 C16 C15 121.5(4) . . ?
 C17 C16 H16 119.2 . . ?
 C16 C17 H17 120.2 . . ?
 C18 C17 C16 119.6(4) . . ?
 C18 C17 H17 120.2 . . ?
 C17 C18 N21 120.2(3) . . ?
 C17 C18 C19 120.5(4) . . ?
 C19 C18 N21 119.2(4) . . ?
 C18 C19 H19 120.4 . . ?
 C20 C19 C18 119.2(4) . . ?
 C20 C19 H19 120.4 . . ?
 C15 C20 H20 119.3 . . ?
 C19 C20 C15 121.5(4) . . ?
 C19 C20 H20 119.3 . . ?
 C25 C24 N23 119.2(3) . . ?
 C29 C24 N23 121.2(3) . . ?
 C29 C24 C25 119.4(4) . . ?
 C24 C25 H25 120.3 . . ?
 C26 C25 C24 119.4(4) . . ?
 C26 C25 H25 120.3 . . ?
 C25 C26 H26 119.1 . . ?
 C25 C26 C27 121.8(4) . . ?
 C27 C26 H26 119.1 . . ?
 C26 C27 C28 118.3(4) . . ?
 C26 C27 C30 119.5(4) . . ?
 C28 C27 C30 122.2(4) . . ?
 C27 C28 H28 119.4 . . ?
 C29 C28 C27 121.1(4) . . ?
 C29 C28 H28 119.4 . . ?
 C24 C29 H29 120.0 . . ?
 C28 C29 C24 120.1(4) . . ?
 C28 C29 H29 120.0 . . ?
 C27 C30 H30A 109.4 . . ?
 C27 C30 H30B 109.5 . . ?
 C27 C30 C31 110.9(4) . . ?
 H30A C30 H30B 108.0 . . ?
 C31 C30 H30A 109.4 . . ?
 C31 C30 H30B 109.4 . . ?
 C32 C31 C30 122.1(4) . . ?
 C32 C31 C36 118.5(4) . . ?
 C36 C31 C30 119.3(4) . . ?
 C31 C32 H32 119.6 . . ?
 C31 C32 C33 120.9(4) . . ?
 C33 C32 H32 119.6 . . ?
 C32 C33 H33 120.1 . . ?
 C34 C33 C32 119.8(4) . . ?
 C34 C33 H33 120.1 . . ?
 C33 C34 N37 120.8(4) . . ?
 C33 C34 C35 119.7(4) . . ?
 C35 C34 N37 119.4(4) . . ?
 C34 C35 H35 120.2 . . ?
 C36 C35 C34 119.6(4) . . ?
 C36 C35 H35 120.2 . . ?
 C31 C36 H36 119.3 . . ?
 C35 C36 C31 121.5(4) . . ?
 C35 C36 H36 119.3 . . ?
 N37 C38 H38 121.1 . . ?
 N37 C38 C39 117.8(4) . . ?
 C39 C38 H38 121.1 . . ?
 N44 C39 C38 113.6(3) . . ?
 N44 C39 C40 122.4(4) . . ?
 C40 C39 C38 123.9(4) . . ?
 C39 C40 H40 120.3 . . ?
 C39 C40 C41 119.3(4) . . ?
 C41 C40 H40 120.3 . . ?
 C40 C41 H41 120.5 . . ?
 C40 C41 C42 119.1(4) . . ?
 C42 C41 H41 120.5 . . ?
 C41 C42 C43 118.3(4) . . ?
 C41 C42 C45 122.1(4) . . ?
 C43 C42 C45 119.6(4) . . ?
 N44 C43 C42 123.0(4) . . ?
 N44 C43 H43 118.5 . . ?
 C42 C43 H43 118.5 . . ?
 C42 C45 H45A 109.5 . . ?
 C42 C45 H45B 109.5 . . ?
 C42 C45 H45C 109.5 . . ?
 H45A C45 H45B 109.5 . . ?
 H45A C45 H45C 109.5 . . ?
 H45B C45 H45C 109.5 . . ?
 N23 C46 H46 121.3 . . ?
 N23 C46 C47 117.4(4) . . ?
 C47 C46 H46 121.3 . . ?
 N52 C47 C46 113.7(3) . . ?
 N52 C47 C48 122.5(4) . . ?
 C48 C47 C46 123.8(4) . . ?
 C47 C48 H48 120.9 . . ?
 C47 C48 C49 118.2(4) . . ?
 C49 C48 H48 120.9 . . ?
 C48 C49 H49 119.9 . . ?
 C50 C49 C48 120.1(4) . . ?
 C50 C49 H49 119.9 . . ?
 C49 C50 C51 118.3(4) . . ?
 C49 C50 C53 122.6(4) . . ?
 C51 C50 C53 119.1(4) . . ?
 N52 C51 C50 122.3(4) . . ?
 N52 C51 H51 118.8 . . ?
 C50 C51 H51 118.8 . . ?
 C50 C53 H53A 109.5 . . ?
 C50 C53 H53B 109.5 . . ?
 C50 C53 H53C 109.5 . . ?
 H53A C53 H53B 109.5 . . ?
 H53A C53 H53C 109.5 . . ?
 H53B C53 H53C 109.5 . . ?
 C56 C55 N54 120.9(3) . . ?
 C56 C55 C60 119.6(4) . . ?
 C60 C55 N54 119.6(4) . . ?
 C55 C56 H56 119.6 . . ?
 C55 C56 C57 120.8(4) . . ?
 C57 C56 H56 119.6 . . ?
 C56 C57 H57 119.9 . . ?
 C56 C57 C58 120.3(4) . . ?
 C58 C57 H57 119.9 . . ?
 C57 C58 C61 120.8(4) . . ?
 C59 C58 C57 118.6(4) . . ?
 C59 C58 C61 120.6(4) . . ?
 C58 C59 H59 119.4 . . ?
 C58 C59 C60 121.2(4) . . ?
 C60 C59 H59 119.4 . . ?
 C55 C60 C59 119.5(4) . . ?
 C55 C60 H60 120.3 . . ?
 C59 C60 H60 120.3 . . ?
 C58 C61 H61A 108.4 . . ?
 C58 C61 H61B 108.4 . . ?
 C58 C61 C62 115.7(3) . . ?
 H61A C61 H61B 107.4 . . ?
 C62 C61 H61A 108.4 . . ?
 C62 C61 H61B 108.4 . . ?
 C63 C62 C61 123.6(4) . . ?
 C63 C62 C67 117.9(4) . . ?
 C67 C62 C61 118.5(3) . . ?
 C62 C63 H63 119.2 . . ?
 C62 C63 C64 121.7(4) . . ?
 C64 C63 H63 119.2 . . ?
 C63 C64 H64 120.3 . . ?
 C63 C64 C65 119.3(3) . . ?
 C65 C64 H64 120.3 . . ?
 C64 C65 N68 120.2(3) . . ?
 C66 C65 N68 119.7(3) . . ?
 C66 C65 C64 120.1(4) . . ?
 C65 C66 H66 120.2 . . ?
 C67 C66 C65 119.7(4) . . ?
 C67 C66 H66 120.2 . . ?
 C62 C67 H67 119.4 . . ?
 C66 C67 C62 121.2(4) . . ?
 C66 C67 H67 119.4 . . ?
 N68 C69 H69 121.5 . . ?
 N68 C69 C70 117.0(4) . . ?
 C70 C69 H69 121.5 . . ?
 N75 C70 C69 113.5(4) . . ?
 N75 C70 C71 123.3(4) . . ?
 C71 C70 C69 123.2(4) . . ?
 C70 C71 H71 120.9 . . ?
 C70 C71 C72 118.2(5) . . ?
 C72 C71 H71 120.9 . . ?
 C71 C72 H72 120.0 . . ?
 C73 C72 C71 120.1(4) . . ?
 C73 C72 H72 120.0 . . ?
 C72 C73 C74 118.0(4) . . ?
 C72 C73 C76 121.8(5) . . ?
 C74 C73 C76 120.2(5) . . ?
 N75 C74 C73 123.1(4) . . ?
 N75 C74 H74 118.5 . . ?
 C73 C74 H74 118.5 . . ?
 C73 C76 H76A 109.5 . . ?
 C73 C76 H76B 109.5 . . ?
 C73 C76 H76C 109.5 . . ?
 H76A C76 H76B 109.5 . . ?
 H76A C76 H76C 109.5 . . ?
 H76B C76 H76C 109.5 . . ?
 N54 C77 H77 121.5 . . ?
 N54 C77 C78 116.9(3) . . ?
 C78 C77 H77 121.5 . . ?
 N83 C78 C77 113.2(4) . . ?
 N83 C78 C79 121.9(4) . . ?
 C79 C78 C77 124.9(4) . . ?
 C78 C79 H79 120.6 . . ?
 C78 C79 C80 118.8(4) . . ?
 C80 C79 H79 120.6 . . ?
 C79 C80 H80 120.0 . . ?
 C81 C80 C79 120.0(4) . . ?
 C81 C80 H80 120.0 . . ?
 C80 C81 C82 117.4(4) . . ?
 C80 C81 C84 122.8(4) . . ?
 C82 C81 C84 119.8(4) . . ?
 N83 C82 C81 123.2(4) . . ?
 N83 C82 H82 118.4 . . ?
 C81 C82 H82 118.4 . . ?
 C81 C84 H84A 109.5 . . ?
 C81 C84 H84B 109.5 . . ?
 C81 C84 H84C 109.5 . . ?
 H84A C84 H84B 109.5 . . ?
 H84A C84 H84C 109.5 . . ?
 H84B C84 H84C 109.5 . . ?
 N85 C86 C87 121.8(4) . . ?
 N85 C86 C92 112.8(4) . . ?
 C87 C86 C92 125.2(5) . . ?
 C86 C87 H87 120.4 . . ?
 C86 C87 C88 119.3(5) . . ?
 C88 C87 H87 120.4 . . ?
 C87 C88 H88 119.9 . . ?
 C89 C88 C87 120.3(4) . . ?
 C89 C88 H88 119.9 . . ?
 C88 C89 C90 117.3(4) . . ?
 C88 C89 C91 124.6(5) . . ?
 C90 C89 C91 118.1(5) . . ?
 N85 C90 C89 123.1(5) . . ?
 N85 C90 H90 118.4 . . ?
 C89 C90 H90 118.4 . . ?
 C89 C91 H91A 109.5 . . ?
 C89 C91 H91B 109.5 . . ?
 C89 C91 H91C 109.5 . . ?
 H91A C91 H91B 109.5 . . ?
 H91A C91 H91C 109.5 . . ?
 H91B C91 H91C 109.5 . . ?
 N21 C92 C86 116.3(4) . . ?
 N21 C92 H92 121.9 . . ?
 C86 C92 H92 121.9 . . ?
 C13 C93 H93 119.5 . . ?
 C94 C93 C13 120.9(4) . . ?
 C94 C93 H93 119.5 . . ?
 C10 C94 C93 120.5(4) . . ?
 C10 C94 H94 119.7 . . ?
 C93 C94 H94 119.7 . . ?
 C4 C95 H95A 109.5 . . ?
 C4 C95 H95B 109.5 . . ?
 C4 C95 H95C 109.5 . . ?
 H95A C95 H95B 109.5 . . ?
 H95A C95 H95C 109.5 . . ?
 H95B C95 H95C 109.5 . . ?
 N1_5 C2_5 C3_5 178.4(6) . . ?
 C2_5 C3_5 H3A_5 109.5 . . ?
 C2_5 C3_5 H3B_5 109.5 . . ?
 C2_5 C3_5 H3C_5 109.5 . . ?
 H3A_5 C3_5 H3B_5 109.5 . . ?
 H3A_5 C3_5 H3C_5 109.5 . . ?
 H3B_5 C3_5 H3C_5 109.5 . . ?
 N1_6 C2_6 C3_6 179.8(8) . . ?
 C2_6 C3_6 H3A_6 109.5 . . ?
 C2_6 C3_6 H3B_6 109.5 . . ?
 C2_6 C3_6 H3C_6 109.5 . . ?
 H3A_6 C3_6 H3B_6 109.5 . . ?
 H3A_6 C3_6 H3C_6 109.5 . . ?
 H3B_6 C3_6 H3C_6 109.5 . . ?
 N1_7 C2_7 C3_7 179.0(10) . . ?
 C2_7 C3_7 H3A_7 109.5 . . ?
 C2_7 C3_7 H3B_7 109.5 . . ?
 C2_7 C3_7 H3C_7 109.5 . . ?
 H3A_7 C3_7 H3B_7 109.5 . . ?
 H3A_7 C3_7 H3C_7 109.5 . . ?
 H3B_7 C3_7 H3C_7 109.5 . . ?
 N1_8 C2_8 C3_8 176.2(9) . . ?
 C2_8 C3_8 H3A_8 109.5 . . ?
 C2_8 C3_8 H3B_8 109.5 . . ?
 C2_8 C3_8 H3C_8 109.5 . . ?
 H3A_8 C3_8 H3B_8 109.5 . . ?
 H3A_8 C3_8 H3C_8 109.5 . . ?
 H3B_8 C3_8 H3C_8 109.5 . . ?
 F2_1 B1_1 F3_1 109.1(4) . . ?
 F2_1 B1_1 F5_1 109.6(4) . . ?
 F3_1 B1_1 F5_1 106.9(6) . . ?
 F4_1 B1_1 F2_1 112.4(6) . . ?
 F4_1 B1_1 F3_1 110.3(5) . . ?
 F4_1 B1_1 F5_1 108.3(4) . . ?
 F2_2 B1_2 F3_2 105.4(4) . . ?
 F2_2 B1_2 F5_2 109.0(5) . . ?
 F3_2 B1_2 F5_2 110.0(4) . . ?
 F4_2 B1_2 F2_2 110.7(5) . . ?
 F4_2 B1_2 F3_2 111.4(5) . . ?
 F4_2 B1_2 F5_2 110.1(4) . . ?
 F2_3 B1_3 F5_3 111.5(5) . . ?
 F3_3 B1_3 F2_3 107.2(5) . . ?
 F3_3 B1_3 F4_3 111.1(5) . . ?
 F3_3 B1_3 F5_3 109.9(5) . . ?
 F4_3 B1_3 F2_3 107.4(5) . . ?
 F4_3 B1_3 F5_3 109.8(4) . . ?
 F2_4 B1_4 F4_4 113.2(5) . . ?
 F2_4 B1_4 F5_4 108.0(4) . . ?
 F3_4 B1_4 F2_4 108.2(6) . . ?
 F3_4 B1_4 F4_4 105.2(4) . . ?
 F3_4 B1_4 F5_4 108.5(6) . . ?
 F5_4 B1_4 F4_4 113.7(4) . . ?

loop_
  _geom_torsion_atom_site_label_1
  _geom_torsion_atom_site_label_2
  _geom_torsion_atom_site_label_3
  _geom_torsion_atom_site_label_4
  _geom_torsion
  _geom_torsion_site_symmetry_1
  _geom_torsion_site_symmetry_2
  _geom_torsion_site_symmetry_3
  _geom_torsion_site_symmetry_4
  _geom_torsion_publ_flag
 Fe1 N2 C1 C4 -177.7(4) . . . . ?
 Fe1 N2 C7 C6 175.1(4) . . . . ?
 Fe1 N2 C7 C8 -8.2(5) . . . . ?
 Fe1 N9 C8 C7 8.3(6) . . . . ?
 Fe1 N9 C10 C11 -119.8(4) . . . . ?
 Fe1 N9 C10 C94 60.8(5) . . . . ?
 Fe1 N37 C34 C33 51.6(5) . . . . ?
 Fe1 N37 C34 C35 -132.2(4) . . . . ?
 Fe1 N37 C38 C39 -5.3(5) . . . . ?
 Fe1 N44 C39 C38 8.6(5) . . . . ?
 Fe1 N44 C39 C40 -174.8(3) . . . . ?
 Fe1 N44 C43 C42 176.4(3) . . . . ?
 Fe1 N68 C65 C64 -74.0(5) . . . . ?
 Fe1 N68 C65 C66 106.1(4) . . . . ?
 Fe1 N68 C69 C70 7.9(5) . . . . ?
 Fe1 N75 C70 C69 0.0(4) . . . . ?
 Fe1 N75 C70 C71 -177.7(3) . . . . ?
 Fe1 N75 C74 C73 177.8(3) . . . . ?
 Fe22 N21 C18 C17 -88.5(5) . . . . ?
 Fe22 N21 C18 C19 89.3(5) . . . . ?
 Fe22 N21 C92 C86 7.7(5) . . . . ?
 Fe22 N23 C24 C25 -126.8(3) . . . . ?
 Fe22 N23 C24 C29 58.2(5) . . . . ?
 Fe22 N23 C46 C47 -2.3(5) . . . . ?
 Fe22 N52 C47 C46 2.8(5) . . . . ?
 Fe22 N52 C47 C48 -178.5(3) . . . . ?
 Fe22 N52 C51 C50 178.8(3) . . . . ?
 Fe22 N54 C55 C56 59.4(5) . . . . ?
 Fe22 N54 C55 C60 -120.5(4) . . . . ?
 Fe22 N54 C77 C78 4.6(5) . . . . ?
 Fe22 N83 C78 C77 -3.7(4) . . . . ?
 Fe22 N83 C78 C79 178.4(3) . . . . ?
 Fe22 N83 C82 C81 179.0(3) . . . . ?
 Fe22 N85 C86 C87 -174.8(3) . . . . ?
 Fe22 N85 C86 C92 1.6(4) . . . . ?
 Fe22 N85 C90 C89 173.2(3) . . . . ?
 N2 C1 C4 C5 2.3(8) . . . . ?
 N2 C1 C4 C95 -178.2(5) . . . . ?
 N2 C7 C8 N9 -0.1(7) . . . . ?
 N9 C10 C11 C12 178.4(3) . . . . ?
 N9 C10 C94 C93 -179.8(4) . . . . ?
 N21 C18 C19 C20 -176.7(4) . . . . ?
 N23 C24 C25 C26 -175.8(4) . . . . ?
 N23 C24 C29 C28 175.7(4) . . . . ?
 N23 C46 C47 N52 -0.3(6) . . . . ?
 N23 C46 C47 C48 -179.0(4) . . . . ?
 N37 C34 C35 C36 -177.0(4) . . . . ?
 N37 C38 C39 N44 -2.1(6) . . . . ?
 N37 C38 C39 C40 -178.7(4) . . . . ?
 N44 C39 C40 C41 -2.6(7) . . . . ?
 N52 C47 C48 C49 0.1(7) . . . . ?
 N54 C55 C56 C57 -177.3(3) . . . . ?
 N54 C55 C60 C59 177.9(3) . . . . ?
 N54 C77 C78 N83 -0.6(6) . . . . ?
 N54 C77 C78 C79 177.2(4) . . . . ?
 N68 C65 C66 C67 -178.4(4) . . . . ?
 N68 C69 C70 N75 -5.3(5) . . . . ?
 N68 C69 C70 C71 172.5(4) . . . . ?
 N75 C70 C71 C72 -0.5(6) . . . . ?
 N83 C78 C79 C80 2.4(7) . . . . ?
 N85 C86 C87 C88 0.5(6) . . . . ?
 N85 C86 C92 N21 -6.1(5) . . . . ?
 C1 N2 C7 C6 -2.9(7) . . . . ?
 C1 N2 C7 C8 173.9(4) . . . . ?
 C1 C4 C5 C6 -1.7(8) . . . . ?
 C4 C5 C6 C7 -1.1(9) . . . . ?
 C5 C6 C7 N2 3.5(9) . . . . ?
 C5 C6 C7 C8 -173.0(5) . . . . ?
 C6 C7 C8 N9 176.6(5) . . . . ?
 C7 N2 C1 C4 -0.1(7) . . . . ?
 C8 N9 C10 C11 62.2(5) . . . . ?
 C8 N9 C10 C94 -117.2(5) . . . . ?
 C10 N9 C8 C7 -173.4(4) . . . . ?
 C10 C11 C12 C13 1.6(6) . . . . ?
 C11 C10 C94 C93 0.7(6) . . . . ?
 C11 C12 C13 C14 179.5(4) . . . . ?
 C11 C12 C13 C93 0.3(6) . . . . ?
 C12 C13 C14 C15 73.0(5) . . . . ?
 C12 C13 C93 C94 -1.7(6) . . . . ?
 C13 C14 C15 C16 13.3(6) . . . . ?
 C13 C14 C15 C20 -167.2(4) . . . . ?
 C13 C93 C94 C10 1.2(6) . . . . ?
 C14 C13 C93 C94 179.1(4) . . . . ?
 C14 C15 C16 C17 -179.0(4) . . . . ?
 C14 C15 C20 C19 -179.2(5) . . . . ?
 C15 C16 C17 C18 -2.0(7) . . . . ?
 C16 C15 C20 C19 0.2(7) . . . . ?
 C16 C17 C18 N21 178.4(4) . . . . ?
 C16 C17 C18 C19 0.7(7) . . . . ?
 C17 C18 C19 C20 1.1(7) . . . . ?
 C18 N21 C92 C86 179.2(3) . . . . ?
 C18 C19 C20 C15 -1.5(8) . . . . ?
 C20 C15 C16 C17 1.5(7) . . . . ?
 C24 N23 C46 C47 -179.9(3) . . . . ?
 C24 C25 C26 C27 0.5(6) . . . . ?
 C25 C24 C29 C28 0.7(6) . . . . ?
 C25 C26 C27 C28 -0.5(6) . . . . ?
 C25 C26 C27 C30 -179.0(4) . . . . ?
 C26 C27 C28 C29 0.6(6) . . . . ?
 C26 C27 C30 C31 54.1(5) . . . . ?
 C27 C28 C29 C24 -0.7(6) . . . . ?
 C27 C30 C31 C32 -120.5(4) . . . . ?
 C27 C30 C31 C36 56.2(5) . . . . ?
 C28 C27 C30 C31 -124.3(4) . . . . ?
 C29 C24 C25 C26 -0.6(6) . . . . ?
 C30 C27 C28 C29 179.0(4) . . . . ?
 C30 C31 C32 C33 176.8(4) . . . . ?
 C30 C31 C36 C35 -177.2(4) . . . . ?
 C31 C32 C33 C34 0.0(6) . . . . ?
 C32 C31 C36 C35 -0.4(6) . . . . ?
 C32 C33 C34 N37 176.6(4) . . . . ?
 C32 C33 C34 C35 0.4(6) . . . . ?
 C33 C34 C35 C36 -0.7(6) . . . . ?
 C34 N37 C38 C39 178.2(4) . . . . ?
 C34 C35 C36 C31 0.8(6) . . . . ?
 C36 C31 C32 C33 0.0(6) . . . . ?
 C38 N37 C34 C33 -132.6(4) . . . . ?
 C38 N37 C34 C35 43.6(5) . . . . ?
 C38 C39 C40 C41 173.6(4) . . . . ?
 C39 N44 C43 C42 -0.7(6) . . . . ?
 C39 C40 C41 C42 0.5(7) . . . . ?
 C40 C41 C42 C43 1.3(7) . . . . ?
 C40 C41 C42 C45 -179.6(4) . . . . ?
 C41 C42 C43 N44 -1.3(7) . . . . ?
 C43 N44 C39 C38 -173.9(4) . . . . ?
 C43 N44 C39 C40 2.7(6) . . . . ?
 C45 C42 C43 N44 179.6(4) . . . . ?
 C46 N23 C24 C25 50.3(5) . . . . ?
 C46 N23 C24 C29 -124.8(4) . . . . ?
 C46 C47 C48 C49 178.6(4) . . . . ?
 C47 N52 C51 C50 0.1(6) . . . . ?
 C47 C48 C49 C50 -1.1(7) . . . . ?
 C48 C49 C50 C51 1.5(7) . . . . ?
 C48 C49 C50 C53 179.8(5) . . . . ?
 C49 C50 C51 N52 -1.1(7) . . . . ?
 C51 N52 C47 C46 -178.3(4) . . . . ?
 C51 N52 C47 C48 0.4(6) . . . . ?
 C53 C50 C51 N52 -179.4(4) . . . . ?
 C55 N54 C77 C78 -174.1(3) . . . . ?
 C55 C56 C57 C58 -1.0(6) . . . . ?
 C56 C55 C60 C59 -2.1(6) . . . . ?
 C56 C57 C58 C59 -1.2(6) . . . . ?
 C56 C57 C58 C61 179.4(4) . . . . ?
 C57 C58 C59 C60 1.8(6) . . . . ?
 C57 C58 C61 C62 -109.0(4) . . . . ?
 C58 C59 C60 C55 -0.1(6) . . . . ?
 C58 C61 C62 C63 0.8(6) . . . . ?
 C58 C61 C62 C67 -177.6(4) . . . . ?
 C59 C58 C61 C62 71.6(5) . . . . ?
 C60 C55 C56 C57 2.7(6) . . . . ?
 C61 C58 C59 C60 -178.8(4) . . . . ?
 C61 C62 C63 C64 -175.3(4) . . . . ?
 C61 C62 C67 C66 176.1(4) . . . . ?
 C62 C63 C64 C65 -1.4(7) . . . . ?
 C63 C62 C67 C66 -2.4(7) . . . . ?
 C63 C64 C65 N68 179.1(4) . . . . ?
 C63 C64 C65 C66 -1.0(7) . . . . ?
 C64 C65 C66 C67 1.7(7) . . . . ?
 C65 N68 C69 C70 179.7(3) . . . . ?
 C65 C66 C67 C62 0.1(7) . . . . ?
 C67 C62 C63 C64 3.1(7) . . . . ?
 C69 N68 C65 C64 115.3(5) . . . . ?
 C69 N68 C65 C66 -64.6(5) . . . . ?
 C69 C70 C71 C72 -178.1(4) . . . . ?
 C70 N75 C74 C73 -0.5(6) . . . . ?
 C70 C71 C72 C73 -0.2(6) . . . . ?
 C71 C72 C73 C74 0.5(6) . . . . ?
 C71 C72 C73 C76 -179.0(4) . . . . ?
 C72 C73 C74 N75 -0.2(6) . . . . ?
 C74 N75 C70 C69 178.6(3) . . . . ?
 C74 N75 C70 C71 0.9(6) . . . . ?
 C76 C73 C74 N75 179.4(4) . . . . ?
 C77 N54 C55 C56 -122.1(4) . . . . ?
 C77 N54 C55 C60 57.9(5) . . . . ?
 C77 C78 C79 C80 -175.2(4) . . . . ?
 C78 N83 C82 C81 0.1(6) . . . . ?
 C78 C79 C80 C81 0.1(7) . . . . ?
 C79 C80 C81 C82 -2.3(7) . . . . ?
 C79 C80 C81 C84 176.8(4) . . . . ?
 C80 C81 C82 N83 2.3(7) . . . . ?
 C82 N83 C78 C77 175.3(4) . . . . ?
 C82 N83 C78 C79 -2.5(6) . . . . ?
 C84 C81 C82 N83 -176.9(4) . . . . ?
 C86 N85 C90 C89 -1.2(6) . . . . ?
 C86 C87 C88 C89 -0.4(6) . . . . ?
 C87 C86 C92 N21 170.2(4) . . . . ?
 C87 C88 C89 C90 -0.4(6) . . . . ?
 C87 C88 C89 C91 178.8(4) . . . . ?
 C88 C89 C90 N85 1.3(6) . . . . ?
 C90 N85 C86 C87 0.3(6) . . . . ?
 C90 N85 C86 C92 176.7(3) . . . . ?
 C91 C89 C90 N85 -178.0(4) . . . . ?
 C92 N21 C18 C17 100.9(5) . . . . ?
 C92 N21 C18 C19 -81.3(5) . . . . ?
 C92 C86 C87 C88 -175.5(4) . . . . ?
 C93 C13 C14 C15 -107.9(5) . . . . ?
 C94 C10 C11 C12 -2.1(6) . . . . ?
 C95 C4 C5 C6 178.9(5) . . . . ?

_olex2_submission_special_instructions  'No special instructions were received'
_oxdiff_exptl_absorpt_empirical_details
;
Empirical correction (ABSPACK) includes:
- Absorption correction using spherical harmonics
- Frame scaling
;
_oxdiff_exptl_absorpt_empirical_full_max  1.147
_oxdiff_exptl_absorpt_empirical_full_min  0.860
